NAME PORT_N150_K5
ROWS
 N OBJ
 E BUDGET
 E FAC0
 E FAC1
 E FAC2
 E FAC3
 E FAC4
 L SEC0
 L SEC1
 L SEC2
 L SEC3
 L SEC4
 L SEC5
COLUMNS
    X0 OBJ -0.0620983
    X0 BUDGET 1
    X0 SEC0 1
    X0 FAC0 0.0678288
    X0 FAC3 0.0945205
    X1 OBJ -0.0763739
    X1 BUDGET 1
    X1 SEC1 1
    X1 FAC0 -0.265517
    X1 FAC2 -0.170175
    X1 FAC3 0.507409
    X2 OBJ -0.146913
    X2 BUDGET 1
    X2 SEC2 1
    X2 FAC0 0.523166
    X2 FAC2 -0.0926109
    X3 OBJ -0.095608
    X3 BUDGET 1
    X3 SEC3 1
    X3 FAC3 -0.118246
    X3 FAC4 -0.123795
    X4 OBJ -0.0608391
    X4 BUDGET 1
    X4 SEC4 1
    X4 FAC2 -0.435888
    X5 OBJ -0.0946751
    X5 BUDGET 1
    X5 SEC5 1
    X5 FAC3 -0.149217
    X6 OBJ -0.039758
    X6 BUDGET 1
    X6 SEC0 1
    X6 FAC1 0.018684
    X7 OBJ -0.0607872
    X7 BUDGET 1
    X7 SEC1 1
    X8 OBJ -0.0816328
    X8 BUDGET 1
    X8 SEC2 1
    X8 FAC1 0.129941
    X8 FAC4 0.413053
    X9 OBJ -0.106925
    X9 BUDGET 1
    X9 SEC3 1
    X9 FAC0 0.176734
    X9 FAC1 -0.0433764
    X9 FAC2 -0.0180491
    X9 FAC3 0.15686
    X10 OBJ -0.0304756
    X10 BUDGET 1
    X10 SEC4 1
    X11 OBJ -0.0739885
    X11 BUDGET 1
    X11 SEC5 1
    X11 FAC3 -0.09746
    X11 FAC4 -0.194949
    X12 OBJ -0.0965861
    X12 BUDGET 1
    X12 SEC0 1
    X12 FAC0 -0.312505
    X13 OBJ -0.100287
    X13 BUDGET 1
    X13 SEC1 1
    X13 FAC1 -0.00803968
    X14 OBJ -0.0710093
    X14 BUDGET 1
    X14 SEC2 1
    X14 FAC1 0.0714882
    X14 FAC2 0.0803614
    X14 FAC3 -0.143197
    X14 FAC4 -0.233028
    X15 OBJ -0.0396644
    X15 BUDGET 1
    X15 SEC3 1
    X15 FAC0 0.0446455
    X15 FAC3 -0.051541
    X15 FAC4 0.163998
    X16 OBJ -0.130362
    X16 BUDGET 1
    X16 SEC4 1
    X16 FAC3 -0.23369
    X16 FAC4 0.129345
    X17 OBJ -0.040987
    X17 BUDGET 1
    X17 SEC5 1
    X17 FAC0 -0.196544
    X17 FAC3 0.0676786
    X18 OBJ -0.132232
    X18 BUDGET 1
    X18 SEC0 1
    X18 FAC1 0.0188225
    X18 FAC3 -0.0508394
    X19 OBJ -0.0489954
    X19 BUDGET 1
    X19 SEC1 1
    X20 OBJ -0.0494761
    X20 BUDGET 1
    X20 SEC2 1
    X20 FAC2 0.36649
    X20 FAC3 0.0427085
    X21 OBJ -0.0781396
    X21 BUDGET 1
    X21 SEC3 1
    X21 FAC4 -0.228417
    X22 OBJ -0.0455718
    X22 BUDGET 1
    X22 SEC4 1
    X22 FAC0 0.458198
    X23 OBJ -0.105876
    X23 BUDGET 1
    X23 SEC5 1
    X23 FAC4 0.452853
    X24 OBJ -0.0632272
    X24 BUDGET 1
    X24 SEC0 1
    X25 OBJ -0.0421005
    X25 BUDGET 1
    X25 SEC1 1
    X25 FAC0 -0.378659
    X25 FAC2 -0.529184
    X26 OBJ -0.065553
    X26 BUDGET 1
    X26 SEC2 1
    X26 FAC1 -0.794681
    X27 OBJ -0.133327
    X27 BUDGET 1
    X27 SEC3 1
    X27 FAC1 -0.0713073
    X27 FAC2 0.0593529
    X27 FAC4 -0.214485
    X28 OBJ -0.0370396
    X28 BUDGET 1
    X28 SEC4 1
    X29 OBJ -0.139304
    X29 BUDGET 1
    X29 SEC5 1
    X29 FAC3 0.177457
    X29 FAC4 -0.070099
    X30 OBJ -0.0424051
    X30 BUDGET 1
    X30 SEC0 1
    X31 OBJ -0.121955
    X31 BUDGET 1
    X31 SEC1 1
    X31 FAC0 0.210684
    X31 FAC1 0.0838694
    X32 OBJ -0.138623
    X32 BUDGET 1
    X32 SEC2 1
    X33 OBJ -0.0893271
    X33 BUDGET 1
    X33 SEC3 1
    X34 OBJ -0.0927368
    X34 BUDGET 1
    X34 SEC4 1
    X34 FAC2 -0.233995
    X34 FAC3 -0.224267
    X34 FAC4 -0.400109
    X35 OBJ -0.136613
    X35 BUDGET 1
    X35 SEC5 1
    X35 FAC0 -0.19795
    X35 FAC3 -0.58209
    X35 FAC4 0.52744
    X36 OBJ -0.0717734
    X36 BUDGET 1
    X36 SEC0 1
    X36 FAC3 0.32829
    X37 OBJ -0.0614083
    X37 BUDGET 1
    X37 SEC1 1
    X37 FAC1 -0.150664
    X37 FAC4 0.205578
    X38 OBJ -0.0283578
    X38 BUDGET 1
    X38 SEC2 1
    X38 FAC3 -0.365749
    X38 FAC4 -0.505229
    X39 OBJ -0.0368422
    X39 BUDGET 1
    X39 SEC3 1
    X39 FAC3 -0.128328
    X39 FAC4 -0.340848
    X40 OBJ -0.0316301
    X40 BUDGET 1
    X40 SEC4 1
    X40 FAC0 0.1897
    X40 FAC3 -0.39407
    X41 OBJ -0.13131
    X41 BUDGET 1
    X41 SEC5 1
    X41 FAC0 0.16077
    X42 OBJ -0.0548218
    X42 BUDGET 1
    X42 SEC0 1
    X42 FAC0 0.218265
    X42 FAC1 0.0372673
    X42 FAC2 -0.191399
    X43 OBJ -0.0576949
    X43 BUDGET 1
    X43 SEC1 1
    X43 FAC1 -0.0626945
    X43 FAC3 0.000148765
    X44 OBJ -0.0446293
    X44 BUDGET 1
    X44 SEC2 1
    X44 FAC2 -0.0527607
    X45 OBJ -0.1285
    X45 BUDGET 1
    X45 SEC3 1
    X46 OBJ -0.111874
    X46 BUDGET 1
    X46 SEC4 1
    X46 FAC3 -0.0787519
    X47 OBJ -0.041222
    X47 BUDGET 1
    X47 SEC5 1
    X47 FAC0 -0.0836709
    X47 FAC4 -0.0122197
    X48 OBJ -0.0404793
    X48 BUDGET 1
    X48 SEC0 1
    X48 FAC1 -0.249552
    X49 OBJ -0.145537
    X49 BUDGET 1
    X49 SEC1 1
    X49 FAC2 0.250499
    X49 FAC4 -0.230462
    X50 OBJ -0.0206436
    X50 BUDGET 1
    X50 SEC2 1
    X50 FAC0 -0.256073
    X50 FAC1 -0.161953
    X50 FAC2 0.0730081
    X51 OBJ -0.105481
    X51 BUDGET 1
    X51 SEC3 1
    X52 OBJ -0.11414
    X52 BUDGET 1
    X52 SEC4 1
    X52 FAC1 -0.205848
    X53 OBJ -0.125588
    X53 BUDGET 1
    X53 SEC5 1
    X53 FAC0 0.3515
    X54 OBJ -0.108776
    X54 BUDGET 1
    X54 SEC0 1
    X54 FAC1 0.0528622
    X54 FAC2 -0.190203
    X54 FAC3 -0.210602
    X55 OBJ -0.10161
    X55 BUDGET 1
    X55 SEC1 1
    X55 FAC3 -0.147107
    X56 OBJ -0.105709
    X56 BUDGET 1
    X56 SEC2 1
    X56 FAC0 0.476075
    X56 FAC2 -0.210382
    X56 FAC4 -0.106281
    X57 OBJ -0.146846
    X57 BUDGET 1
    X57 SEC3 1
    X58 OBJ -0.103559
    X58 BUDGET 1
    X58 SEC4 1
    X58 FAC0 -0.137962
    X58 FAC4 -0.183568
    X59 OBJ -0.0549405
    X59 BUDGET 1
    X59 SEC5 1
    X59 FAC3 0.333564
    X60 OBJ -0.136176
    X60 BUDGET 1
    X60 SEC0 1
    X60 FAC0 0.0347815
    X60 FAC3 0.537127
    X61 OBJ -0.0549254
    X61 BUDGET 1
    X61 SEC1 1
    X61 FAC0 -0.141619
    X61 FAC2 0.144607
    X62 OBJ -0.126628
    X62 BUDGET 1
    X62 SEC2 1
    X62 FAC3 0.0812497
    X63 OBJ -0.0232285
    X63 BUDGET 1
    X63 SEC3 1
    X63 FAC0 0.327973
    X63 FAC2 -0.0171275
    X64 OBJ -0.0202264
    X64 BUDGET 1
    X64 SEC4 1
    X64 FAC2 -0.424239
    X64 FAC4 0.211484
    X65 OBJ -0.0710769
    X65 BUDGET 1
    X65 SEC5 1
    X65 FAC4 -0.132609
    X66 OBJ -0.057131
    X66 BUDGET 1
    X66 SEC0 1
    X66 FAC1 -0.0414975
    X66 FAC2 0.194208
    X67 OBJ -0.125555
    X67 BUDGET 1
    X67 SEC1 1
    X68 OBJ -0.115206
    X68 BUDGET 1
    X68 SEC2 1
    X68 FAC3 0.0133987
    X68 FAC4 -0.140283
    X69 OBJ -0.0646762
    X69 BUDGET 1
    X69 SEC3 1
    X69 FAC0 0.0695158
    X69 FAC3 0.141344
    X70 OBJ -0.0417532
    X70 BUDGET 1
    X70 SEC4 1
    X70 FAC0 0.210805
    X70 FAC1 -0.2921
    X70 FAC2 0.195946
    X71 OBJ -0.0381475
    X71 BUDGET 1
    X71 SEC5 1
    X71 FAC0 -0.231069
    X71 FAC1 -0.1481
    X71 FAC2 0.0204471
    X72 OBJ -0.0738049
    X72 BUDGET 1
    X72 SEC0 1
    X72 FAC3 -0.38902
    X72 FAC4 -0.152417
    X73 OBJ -0.101851
    X73 BUDGET 1
    X73 SEC1 1
    X73 FAC1 0.031379
    X73 FAC2 -0.00294497
    X74 OBJ -0.133476
    X74 BUDGET 1
    X74 SEC2 1
    X74 FAC0 -0.303096
    X74 FAC1 0.160527
    X74 FAC4 0.617343
    X75 OBJ -0.140488
    X75 BUDGET 1
    X75 SEC3 1
    X75 FAC3 -0.134525
    X76 OBJ -0.142394
    X76 BUDGET 1
    X76 SEC4 1
    X77 OBJ -0.121699
    X77 BUDGET 1
    X77 SEC5 1
    X77 FAC0 -0.109937
    X77 FAC4 0.00480926
    X78 OBJ -0.0345772
    X78 BUDGET 1
    X78 SEC0 1
    X78 FAC0 -0.426649
    X78 FAC4 0.0350281
    X79 OBJ -0.0798898
    X79 BUDGET 1
    X79 SEC1 1
    X79 FAC4 0.0258079
    X80 OBJ -0.14488
    X80 BUDGET 1
    X80 SEC2 1
    X80 FAC2 0.44943
    X80 FAC4 -0.0047718
    X81 OBJ -0.140271
    X81 BUDGET 1
    X81 SEC3 1
    X81 FAC0 -0.266281
    X81 FAC3 -0.0579373
    X82 OBJ -0.0856342
    X82 BUDGET 1
    X82 SEC4 1
    X82 FAC0 -0.25467
    X82 FAC2 0.0488152
    X82 FAC3 -0.0164885
    X83 OBJ -0.0443507
    X83 BUDGET 1
    X83 SEC5 1
    X83 FAC0 0.250263
    X83 FAC4 0.162808
    X84 OBJ -0.0384484
    X84 BUDGET 1
    X84 SEC0 1
    X84 FAC0 -0.128829
    X84 FAC1 0.502511
    X85 OBJ -0.0628016
    X85 BUDGET 1
    X85 SEC1 1
    X85 FAC0 -0.398345
    X85 FAC3 0.149874
    X86 OBJ -0.0420039
    X86 BUDGET 1
    X86 SEC2 1
    X86 FAC0 0.251364
    X86 FAC1 0.445526
    X86 FAC2 -0.601477
    X86 FAC4 0.345874
    X87 OBJ -0.0762184
    X87 BUDGET 1
    X87 SEC3 1
    X87 FAC0 -0.436595
    X87 FAC4 0.420729
    X88 OBJ -0.0734042
    X88 BUDGET 1
    X88 SEC4 1
    X88 FAC2 -0.481788
    X88 FAC3 -0.622927
    X88 FAC4 -0.258391
    X89 OBJ -0.136812
    X89 BUDGET 1
    X89 SEC5 1
    X89 FAC1 -0.401019
    X89 FAC2 0.109193
    X90 OBJ -0.0204903
    X90 BUDGET 1
    X90 SEC0 1
    X90 FAC4 -0.034474
    X91 OBJ -0.144008
    X91 BUDGET 1
    X91 SEC1 1
    X91 FAC1 -0.338911
    X92 OBJ -0.124334
    X92 BUDGET 1
    X92 SEC2 1
    X93 OBJ -0.0670416
    X93 BUDGET 1
    X93 SEC3 1
    X93 FAC1 -0.163045
    X93 FAC2 -0.474383
    X93 FAC3 -0.371909
    X94 OBJ -0.134852
    X94 BUDGET 1
    X94 SEC4 1
    X94 FAC1 -0.080348
    X94 FAC2 -0.289719
    X95 OBJ -0.0741893
    X95 BUDGET 1
    X95 SEC5 1
    X96 OBJ -0.129313
    X96 BUDGET 1
    X96 SEC0 1
    X96 FAC0 -0.200702
    X96 FAC4 -0.00363587
    X97 OBJ -0.134942
    X97 BUDGET 1
    X97 SEC1 1
    X98 OBJ -0.125098
    X98 BUDGET 1
    X98 SEC2 1
    X98 FAC2 -0.225066
    X99 OBJ -0.138869
    X99 BUDGET 1
    X99 SEC3 1
    X99 FAC0 0.0409651
    X99 FAC1 -0.145505
    X100 OBJ -0.132597
    X100 BUDGET 1
    X100 SEC4 1
    X100 FAC1 -0.12574
    X100 FAC2 0.713147
    X101 OBJ -0.0679321
    X101 BUDGET 1
    X101 SEC5 1
    X101 FAC0 -0.0656279
    X101 FAC3 -0.220588
    X101 FAC4 0.210798
    X102 OBJ -0.0605854
    X102 BUDGET 1
    X102 SEC0 1
    X102 FAC0 -0.399649
    X102 FAC3 -0.241885
    X103 OBJ -0.0318498
    X103 BUDGET 1
    X103 SEC1 1
    X103 FAC0 -0.178983
    X103 FAC3 0.262822
    X104 OBJ -0.0664336
    X104 BUDGET 1
    X104 SEC2 1
    X104 FAC4 -0.694275
    X105 OBJ -0.0464767
    X105 BUDGET 1
    X105 SEC3 1
    X105 FAC0 -0.256717
    X106 OBJ -0.0219285
    X106 BUDGET 1
    X106 SEC4 1
    X106 FAC3 0.182527
    X107 OBJ -0.0855802
    X107 BUDGET 1
    X107 SEC5 1
    X107 FAC0 0.0756094
    X107 FAC2 -0.356136
    X108 OBJ -0.0456544
    X108 BUDGET 1
    X108 SEC0 1
    X108 FAC0 -0.765577
    X108 FAC2 0.286127
    X109 OBJ -0.100645
    X109 BUDGET 1
    X109 SEC1 1
    X109 FAC1 -0.0474549
    X110 OBJ -0.0483578
    X110 BUDGET 1
    X110 SEC2 1
    X110 FAC3 0.207245
    X110 FAC4 0.100591
    X111 OBJ -0.0931046
    X111 BUDGET 1
    X111 SEC3 1
    X111 FAC1 0.632094
    X111 FAC3 0.307407
    X112 OBJ -0.0746093
    X112 BUDGET 1
    X112 SEC4 1
    X113 OBJ -0.100456
    X113 BUDGET 1
    X113 SEC5 1
    X113 FAC1 0.22193
    X114 OBJ -0.0815185
    X114 BUDGET 1
    X114 SEC0 1
    X114 FAC0 -0.220193
    X114 FAC1 -0.229969
    X114 FAC4 0.0813485
    X115 OBJ -0.121093
    X115 BUDGET 1
    X115 SEC1 1
    X115 FAC1 0.0939687
    X116 OBJ -0.131419
    X116 BUDGET 1
    X116 SEC2 1
    X116 FAC3 -0.346791
    X117 OBJ -0.0414645
    X117 BUDGET 1
    X117 SEC3 1
    X117 FAC2 0.0399895
    X118 OBJ -0.13655
    X118 BUDGET 1
    X118 SEC4 1
    X118 FAC0 -0.0669367
    X118 FAC3 0.153026
    X118 FAC4 0.262825
    X119 OBJ -0.0436725
    X119 BUDGET 1
    X119 SEC5 1
    X119 FAC0 0.00992448
    X119 FAC4 -0.0322415
    X120 OBJ -0.102721
    X120 BUDGET 1
    X120 SEC0 1
    X121 OBJ -0.149084
    X121 BUDGET 1
    X121 SEC1 1
    X121 FAC3 0.144799
    X122 OBJ -0.0668327
    X122 BUDGET 1
    X122 SEC2 1
    X122 FAC2 0.00379773
    X122 FAC4 0.094313
    X123 OBJ -0.147927
    X123 BUDGET 1
    X123 SEC3 1
    X123 FAC3 -0.166811
    X124 OBJ -0.0866481
    X124 BUDGET 1
    X124 SEC4 1
    X124 FAC1 -0.0359607
    X124 FAC2 0.0364275
    X124 FAC3 0.0522546
    X125 OBJ -0.0664297
    X125 BUDGET 1
    X125 SEC5 1
    X125 FAC0 0.346183
    X125 FAC1 0.200616
    X125 FAC4 -0.206609
    X126 OBJ -0.0324546
    X126 BUDGET 1
    X126 SEC0 1
    X126 FAC4 0.0869663
    X127 OBJ -0.103843
    X127 BUDGET 1
    X127 SEC1 1
    X128 OBJ -0.0523046
    X128 BUDGET 1
    X128 SEC2 1
    X128 FAC1 0.300205
    X128 FAC2 0.0602587
    X128 FAC3 -0.00853286
    X129 OBJ -0.0384947
    X129 BUDGET 1
    X129 SEC3 1
    X129 FAC0 0.0465193
    X130 OBJ -0.0602197
    X130 BUDGET 1
    X130 SEC4 1
    X130 FAC1 -0.402692
    X130 FAC3 0.335905
    X131 OBJ -0.0804845
    X131 BUDGET 1
    X131 SEC5 1
    X131 FAC2 -0.172124
    X131 FAC3 -0.134002
    X132 OBJ -0.110364
    X132 BUDGET 1
    X132 SEC0 1
    X132 FAC2 0.302933
    X133 OBJ -0.10346
    X133 BUDGET 1
    X133 SEC1 1
    X133 FAC1 0.106463
    X133 FAC3 0.0143342
    X134 OBJ -0.117
    X134 BUDGET 1
    X134 SEC2 1
    X134 FAC3 -0.219714
    X135 OBJ -0.11007
    X135 BUDGET 1
    X135 SEC3 1
    X136 OBJ -0.0768378
    X136 BUDGET 1
    X136 SEC4 1
    X136 FAC3 0.0866453
    X137 OBJ -0.0234973
    X137 BUDGET 1
    X137 SEC5 1
    X137 FAC0 0.0840941
    X137 FAC3 -0.086085
    X138 OBJ -0.110611
    X138 BUDGET 1
    X138 SEC0 1
    X138 FAC1 -0.0157122
    X139 OBJ -0.135866
    X139 BUDGET 1
    X139 SEC1 1
    X139 FAC0 -0.448581
    X139 FAC2 0.491169
    X139 FAC3 -0.0605556
    X140 OBJ -0.102442
    X140 BUDGET 1
    X140 SEC2 1
    X140 FAC2 -0.0513714
    X140 FAC3 -0.412415
    X140 FAC4 -0.291253
    X141 OBJ -0.0750895
    X141 BUDGET 1
    X141 SEC3 1
    X141 FAC0 0.0102932
    X142 OBJ -0.130679
    X142 BUDGET 1
    X142 SEC4 1
    X142 FAC1 -0.244283
    X143 OBJ -0.111606
    X143 BUDGET 1
    X143 SEC5 1
    X143 FAC1 -0.0848921
    X143 FAC3 0.0997261
    X143 FAC4 -0.150924
    X144 OBJ -0.020567
    X144 BUDGET 1
    X144 SEC0 1
    X144 FAC3 -0.485537
    X145 OBJ -0.128139
    X145 BUDGET 1
    X145 SEC1 1
    X145 FAC0 -0.229998
    X145 FAC1 0.0846541
    X145 FAC4 0.080589
    X146 OBJ -0.110631
    X146 BUDGET 1
    X146 SEC2 1
    X147 OBJ -0.0312025
    X147 BUDGET 1
    X147 SEC3 1
    X147 FAC1 0.0932033
    X147 FAC2 0.0534564
    X148 OBJ -0.0503648
    X148 BUDGET 1
    X148 SEC4 1
    X149 OBJ -0.0624658
    X149 BUDGET 1
    X149 SEC5 1
    X149 FAC0 -0.64328
    X149 FAC4 0.479209
    F0 FAC0 1
    F1 FAC1 1
    F2 FAC2 1
    F3 FAC3 1
    F4 FAC4 1
RHS
    RHS BUDGET 1
    RHS SEC0 0.25
    RHS SEC1 0.25
    RHS SEC2 0.25
    RHS SEC3 0.25
    RHS SEC4 0.25
    RHS SEC5 0.25
BOUNDS
 UP BND X0 0.05
 UP BND X1 0.05
 UP BND X2 0.05
 UP BND X3 0.05
 UP BND X4 0.05
 UP BND X5 0.05
 UP BND X6 0.05
 UP BND X7 0.05
 UP BND X8 0.05
 UP BND X9 0.05
 UP BND X10 0.05
 UP BND X11 0.05
 UP BND X12 0.05
 UP BND X13 0.05
 UP BND X14 0.05
 UP BND X15 0.05
 UP BND X16 0.05
 UP BND X17 0.05
 UP BND X18 0.05
 UP BND X19 0.05
 UP BND X20 0.05
 UP BND X21 0.05
 UP BND X22 0.05
 UP BND X23 0.05
 UP BND X24 0.05
 UP BND X25 0.05
 UP BND X26 0.05
 UP BND X27 0.05
 UP BND X28 0.05
 UP BND X29 0.05
 UP BND X30 0.05
 UP BND X31 0.05
 UP BND X32 0.05
 UP BND X33 0.05
 UP BND X34 0.05
 UP BND X35 0.05
 UP BND X36 0.05
 UP BND X37 0.05
 UP BND X38 0.05
 UP BND X39 0.05
 UP BND X40 0.05
 UP BND X41 0.05
 UP BND X42 0.05
 UP BND X43 0.05
 UP BND X44 0.05
 UP BND X45 0.05
 UP BND X46 0.05
 UP BND X47 0.05
 UP BND X48 0.05
 UP BND X49 0.05
 UP BND X50 0.05
 UP BND X51 0.05
 UP BND X52 0.05
 UP BND X53 0.05
 UP BND X54 0.05
 UP BND X55 0.05
 UP BND X56 0.05
 UP BND X57 0.05
 UP BND X58 0.05
 UP BND X59 0.05
 UP BND X60 0.05
 UP BND X61 0.05
 UP BND X62 0.05
 UP BND X63 0.05
 UP BND X64 0.05
 UP BND X65 0.05
 UP BND X66 0.05
 UP BND X67 0.05
 UP BND X68 0.05
 UP BND X69 0.05
 UP BND X70 0.05
 UP BND X71 0.05
 UP BND X72 0.05
 UP BND X73 0.05
 UP BND X74 0.05
 UP BND X75 0.05
 UP BND X76 0.05
 UP BND X77 0.05
 UP BND X78 0.05
 UP BND X79 0.05
 UP BND X80 0.05
 UP BND X81 0.05
 UP BND X82 0.05
 UP BND X83 0.05
 UP BND X84 0.05
 UP BND X85 0.05
 UP BND X86 0.05
 UP BND X87 0.05
 UP BND X88 0.05
 UP BND X89 0.05
 UP BND X90 0.05
 UP BND X91 0.05
 UP BND X92 0.05
 UP BND X93 0.05
 UP BND X94 0.05
 UP BND X95 0.05
 UP BND X96 0.05
 UP BND X97 0.05
 UP BND X98 0.05
 UP BND X99 0.05
 UP BND X100 0.05
 UP BND X101 0.05
 UP BND X102 0.05
 UP BND X103 0.05
 UP BND X104 0.05
 UP BND X105 0.05
 UP BND X106 0.05
 UP BND X107 0.05
 UP BND X108 0.05
 UP BND X109 0.05
 UP BND X110 0.05
 UP BND X111 0.05
 UP BND X112 0.05
 UP BND X113 0.05
 UP BND X114 0.05
 UP BND X115 0.05
 UP BND X116 0.05
 UP BND X117 0.05
 UP BND X118 0.05
 UP BND X119 0.05
 UP BND X120 0.05
 UP BND X121 0.05
 UP BND X122 0.05
 UP BND X123 0.05
 UP BND X124 0.05
 UP BND X125 0.05
 UP BND X126 0.05
 UP BND X127 0.05
 UP BND X128 0.05
 UP BND X129 0.05
 UP BND X130 0.05
 UP BND X131 0.05
 UP BND X132 0.05
 UP BND X133 0.05
 UP BND X134 0.05
 UP BND X135 0.05
 UP BND X136 0.05
 UP BND X137 0.05
 UP BND X138 0.05
 UP BND X139 0.05
 UP BND X140 0.05
 UP BND X141 0.05
 UP BND X142 0.05
 UP BND X143 0.05
 UP BND X144 0.05
 UP BND X145 0.05
 UP BND X146 0.05
 UP BND X147 0.05
 UP BND X148 0.05
 UP BND X149 0.05
 FR BND F0
 FR BND F1
 FR BND F2
 FR BND F3
 FR BND F4
QUADOBJ
    X0 X0 0.0259993
    X1 X1 0.0834689
    X2 X2 0.0489162
    X3 X3 0.0884148
    X4 X4 0.0590554
    X5 X5 0.141143
    X6 X6 0.160076
    X7 X7 0.171149
    X8 X8 0.0817266
    X9 X9 0.159428
    X10 X10 0.0645474
    X11 X11 0.097594
    X12 X12 0.102479
    X13 X13 0.14766
    X14 X14 0.0200373
    X15 X15 0.0396548
    X16 X16 0.152617
    X17 X17 0.17656
    X18 X18 0.0727464
    X19 X19 0.13838
    X20 X20 0.173042
    X21 X21 0.0562953
    X22 X22 0.0335646
    X23 X23 0.146262
    X24 X24 0.135968
    X25 X25 0.125163
    X26 X26 0.0894095
    X27 X27 0.087042
    X28 X28 0.0873005
    X29 X29 0.147867
    X30 X30 0.108871
    X31 X31 0.141599
    X32 X32 0.0923753
    X33 X33 0.0615348
    X34 X34 0.14543
    X35 X35 0.172401
    X36 X36 0.0513191
    X37 X37 0.101962
    X38 X38 0.0632714
    X39 X39 0.132067
    X40 X40 0.0333988
    X41 X41 0.168267
    X42 X42 0.14152
    X43 X43 0.108168
    X44 X44 0.0992003
    X45 X45 0.153166
    X46 X46 0.060895
    X47 X47 0.0935125
    X48 X48 0.0591114
    X49 X49 0.100758
    X50 X50 0.140087
    X51 X51 0.0439141
    X52 X52 0.137416
    X53 X53 0.162853
    X54 X54 0.109364
    X55 X55 0.105632
    X56 X56 0.138373
    X57 X57 0.118716
    X58 X58 0.0297058
    X59 X59 0.0389605
    X60 X60 0.0919122
    X61 X61 0.0412168
    X62 X62 0.0977825
    X63 X63 0.154437
    X64 X64 0.0795555
    X65 X65 0.153548
    X66 X66 0.161483
    X67 X67 0.0279162
    X68 X68 0.0955495
    X69 X69 0.0830988
    X70 X70 0.0919937
    X71 X71 0.0860451
    X72 X72 0.100543
    X73 X73 0.155789
    X74 X74 0.0826434
    X75 X75 0.129132
    X76 X76 0.0263274
    X77 X77 0.131773
    X78 X78 0.0682434
    X79 X79 0.0595293
    X80 X80 0.126777
    X81 X81 0.138261
    X82 X82 0.0993224
    X83 X83 0.175859
    X84 X84 0.169055
    X85 X85 0.0730716
    X86 X86 0.151521
    X87 X87 0.0248451
    X88 X88 0.139566
    X89 X89 0.0641009
    X90 X90 0.173084
    X91 X91 0.0492703
    X92 X92 0.0711278
    X93 X93 0.176841
    X94 X94 0.0574714
    X95 X95 0.0393864
    X96 X96 0.0445316
    X97 X97 0.057021
    X98 X98 0.154489
    X99 X99 0.0795579
    X100 X100 0.0548233
    X101 X101 0.0496232
    X102 X102 0.122269
    X103 X103 0.110643
    X104 X104 0.136485
    X105 X105 0.0460071
    X106 X106 0.079335
    X107 X107 0.1747
    X108 X108 0.164675
    X109 X109 0.0492745
    X110 X110 0.0265758
    X111 X111 0.0689943
    X112 X112 0.02374
    X113 X113 0.048731
    X114 X114 0.137357
    X115 X115 0.0417897
    X116 X116 0.166567
    X117 X117 0.0454028
    X118 X118 0.0258933
    X119 X119 0.104915
    X120 X120 0.0367374
    X121 X121 0.112378
    X122 X122 0.122278
    X123 X123 0.0891573
    X124 X124 0.037018
    X125 X125 0.0438901
    X126 X126 0.0218394
    X127 X127 0.137364
    X128 X128 0.170547
    X129 X129 0.0479423
    X130 X130 0.13923
    X131 X131 0.139945
    X132 X132 0.0624474
    X133 X133 0.171152
    X134 X134 0.120911
    X135 X135 0.157204
    X136 X136 0.0431352
    X137 X137 0.121421
    X138 X138 0.15113
    X139 X139 0.149923
    X140 X140 0.0710622
    X141 X141 0.100598
    X142 X142 0.0754851
    X143 X143 0.176459
    X144 X144 0.0755497
    X145 X145 0.146066
    X146 X146 0.162465
    X147 X147 0.161437
    X148 X148 0.0757577
    X149 X149 0.112667
    F0 F0 2
    F1 F1 2
    F2 F2 2
    F3 F3 2
    F4 F4 2
ENDATA
