NAME PORT_N1500_K15
ROWS
 N OBJ
 E BUDGET
 E FAC0
 E FAC1
 E FAC2
 E FAC3
 E FAC4
 E FAC5
 E FAC6
 E FAC7
 E FAC8
 E FAC9
 E FAC10
 E FAC11
 E FAC12
 E FAC13
 E FAC14
 L SEC0
 L SEC1
 L SEC2
 L SEC3
 L SEC4
 L SEC5
 L SEC6
 L SEC7
 L SEC8
 L SEC9
 L SEC10
 L SEC11
COLUMNS
    X0 OBJ -0.0620983
    X0 BUDGET 1
    X0 SEC0 1
    X0 FAC0 0.0678288
    X0 FAC3 0.0945205
    X0 FAC5 0.10439
    X0 FAC6 -0.0462323
    X0 FAC9 -0.0705511
    X0 FAC14 -0.415624
    X1 OBJ -0.0576492
    X1 BUDGET 1
    X1 SEC1 1
    X1 FAC0 -0.190265
    X1 FAC2 -0.173767
    X1 FAC7 -0.189624
    X1 FAC13 -0.0745282
    X2 OBJ -0.0517325
    X2 BUDGET 1
    X2 SEC2 1
    X2 FAC4 -0.149217
    X2 FAC7 0.018684
    X2 FAC9 0.250805
    X3 OBJ -0.0793067
    X3 BUDGET 1
    X3 SEC3 1
    X3 FAC4 0.444341
    X3 FAC9 0.335936
    X3 FAC10 -0.293211
    X3 FAC12 -0.0775309
    X3 FAC14 -0.0701885
    X4 OBJ -0.0708235
    X4 BUDGET 1
    X4 SEC4 1
    X4 FAC1 0.35968
    X4 FAC5 -0.118901
    X4 FAC10 -0.09746
    X4 FAC11 -0.194949
    X4 FAC14 -0.312505
    X5 OBJ -0.0936244
    X5 BUDGET 1
    X5 SEC5 1
    X5 FAC5 -0.00803968
    X5 FAC12 0.0714882
    X5 FAC13 0.0803614
    X5 FAC14 -0.143197
    X6 OBJ -0.0200303
    X6 BUDGET 1
    X6 SEC6 1
    X6 FAC0 -0.233028
    X6 FAC1 0.0446455
    X6 FAC4 -0.051541
    X6 FAC5 0.163998
    X6 FAC6 -0.23369
    X6 FAC11 -0.220074
    X6 FAC12 -0.164562
    X6 FAC14 -0.729016
    X7 OBJ -0.0390583
    X7 BUDGET 1
    X7 SEC7 1
    X7 FAC1 -0.10654
    X7 FAC6 0.121395
    X7 FAC11 -0.134767
    X8 OBJ -0.126383
    X8 BUDGET 1
    X8 SEC8 1
    X8 FAC1 0.2795
    X8 FAC2 0.0311038
    X8 FAC3 0.0427085
    X8 FAC11 -0.228417
    X8 FAC12 -0.0666666
    X9 OBJ -0.0823315
    X9 BUDGET 1
    X9 SEC9 1
    X9 FAC2 -0.191594
    X9 FAC8 -0.0656631
    X10 OBJ -0.036515
    X10 BUDGET 1
    X10 SEC10 1
    X10 FAC0 0.261633
    X10 FAC3 -0.388806
    X10 FAC7 0.745499
    X10 FAC8 -0.427264
    X10 FAC14 0.0790309
    X11 OBJ -0.0580857
    X11 BUDGET 1
    X11 SEC11 1
    X11 FAC0 0.199024
    X11 FAC2 0.120141
    X11 FAC13 0.177457
    X11 FAC14 -0.070099
    X12 OBJ -0.0424051
    X12 BUDGET 1
    X12 SEC0 1
    X12 FAC7 0.210684
    X12 FAC8 0.0838694
    X13 OBJ -0.0857219
    X13 BUDGET 1
    X13 SEC1 1
    X13 FAC9 0.669011
    X13 FAC11 0.262519
    X13 FAC12 0.108816
    X13 FAC13 -0.0414167
    X13 FAC14 0.254522
    X14 OBJ -0.0400781
    X14 BUDGET 1
    X14 SEC2 1
    X14 FAC2 0.459359
    X14 FAC5 -0.289004
    X14 FAC9 0.0889009
    X14 FAC13 0.200395
    X14 FAC14 -0.436307
    X15 OBJ -0.0772596
    X15 BUDGET 1
    X15 SEC3 1
    X15 FAC0 0.205578
    X15 FAC2 -0.365749
    X15 FAC6 0.00832542
    X15 FAC8 -0.0848613
    X15 FAC9 0.583263
    X15 FAC11 -0.309976
    X15 FAC12 -0.340848
    X15 FAC14 0.1897
    X16 OBJ -0.109467
    X16 BUDGET 1
    X16 SEC4 1
    X16 FAC1 -0.39407
    X16 FAC3 0.16077
    X16 FAC5 -0.214702
    X16 FAC9 0.250506
    X16 FAC10 0.218265
    X16 FAC11 0.0372673
    X16 FAC12 -0.191399
    X17 OBJ -0.0576949
    X17 BUDGET 1
    X17 SEC5 1
    X17 FAC1 -0.0626945
    X17 FAC3 0.000148765
    X17 FAC6 -0.0527607
    X17 FAC9 -0.133934
    X18 OBJ -0.0645516
    X18 BUDGET 1
    X18 SEC6 1
    X18 FAC5 0.28971
    X18 FAC6 -0.445159
    X18 FAC7 -0.211951
    X18 FAC8 -0.496376
    X18 FAC11 -0.291391
    X18 FAC12 0.088933
    X18 FAC13 -0.320659
    X19 OBJ -0.145032
    X19 BUDGET 1
    X19 SEC7 1
    X19 FAC2 -0.252227
    X19 FAC4 0.0552711
    X19 FAC8 0.029875
    X19 FAC9 0.000889191
    X19 FAC10 0.0706516
    X19 FAC11 -0.0516637
    X19 FAC13 0.316263
    X20 OBJ -0.113079
    X20 BUDGET 1
    X20 SEC8 1
    X20 FAC4 0.188605
    X20 FAC7 -0.323144
    X20 FAC11 0.544145
    X21 OBJ -0.127433
    X21 BUDGET 1
    X21 SEC9 1
    X21 FAC4 -0.157275
    X21 FAC6 -0.031192
    X21 FAC13 -0.147107
    X22 OBJ -0.105709
    X22 BUDGET 1
    X22 SEC10 1
    X22 FAC0 0.476075
    X22 FAC2 -0.210382
    X22 FAC4 -0.106281
    X22 FAC14 -0.137962
    X23 OBJ -0.0595742
    X23 BUDGET 1
    X23 SEC11 1
    X23 FAC1 -0.183568
    X23 FAC2 0.0527139
    X23 FAC5 -0.444832
    X23 FAC9 -0.15699
    X23 FAC12 0.1239
    X24 OBJ -0.0784286
    X24 BUDGET 1
    X24 SEC0 1
    X24 FAC0 -0.18074
    X24 FAC1 -0.700958
    X24 FAC3 0.732743
    X24 FAC4 0.11165
    X24 FAC9 -0.277108
    X24 FAC10 0.207499
    X24 FAC11 0.327973
    X24 FAC13 -0.0171275
    X25 OBJ -0.12923
    X25 BUDGET 1
    X25 SEC1 1
    X25 FAC0 -0.0026449
    X25 FAC1 0.573463
    X25 FAC5 0.208201
    X25 FAC10 -0.215599
    X25 FAC11 -0.45686
    X25 FAC12 -0.339487
    X25 FAC14 0.0354024
    X26 OBJ -0.0685354
    X26 BUDGET 1
    X26 SEC2 1
    X26 FAC8 -0.357077
    X26 FAC13 -0.653752
    X26 FAC14 -0.20778
    X27 OBJ -0.0646762
    X27 BUDGET 1
    X27 SEC3 1
    X27 FAC0 0.0565117
    X27 FAC1 0.818772
    X27 FAC6 -0.107935
    X27 FAC9 -0.174057
    X27 FAC13 -0.0463177
    X28 OBJ -0.0510865
    X28 BUDGET 1
    X28 SEC4 1
    X28 FAC0 -0.12236
    X28 FAC9 0.135216
    X28 FAC10 -0.774286
    X28 FAC14 0.0298607
    X29 OBJ -0.0779616
    X29 BUDGET 1
    X29 SEC5 1
    X29 FAC3 -0.224767
    X29 FAC4 0.160527
    X29 FAC7 0.617343
    X29 FAC13 -0.134525
    X30 OBJ -0.142394
    X30 BUDGET 1
    X30 SEC6 1
    X30 FAC5 -0.109937
    X30 FAC7 -0.378508
    X30 FAC9 0.208334
    X30 FAC10 0.304418
    X30 FAC11 0.350993
    X30 FAC12 0.392061
    X30 FAC14 0.0606747
    X31 OBJ -0.02136
    X31 BUDGET 1
    X31 SEC7 1
    X31 FAC6 -0.0141017
    X31 FAC9 -0.762879
    X31 FAC13 0.338991
    X31 FAC14 0.593059
    X32 OBJ -0.0639467
    X32 BUDGET 1
    X32 SEC8 1
    X32 FAC2 -0.143323
    X32 FAC4 0.470457
    X32 FAC8 -0.0905163
    X32 FAC9 -0.49904
    X32 FAC12 -0.0519927
    X33 OBJ -0.0711498
    X33 BUDGET 1
    X33 SEC9 1
    X33 FAC0 -0.307291
    X33 FAC2 -0.100102
    X33 FAC10 -0.0338098
    X33 FAC13 0.149874
    X34 OBJ -0.0420039
    X34 BUDGET 1
    X34 SEC10 1
    X34 FAC0 0.251364
    X34 FAC1 0.445526
    X34 FAC2 -0.601477
    X34 FAC4 0.345874
    X34 FAC7 -0.436595
    X34 FAC11 0.420729
    X34 FAC12 -0.481788
    X35 OBJ -0.0252844
    X35 BUDGET 1
    X35 SEC11 1
    X35 FAC0 -0.622927
    X35 FAC1 -0.258391
    X35 FAC5 -0.401019
    X35 FAC6 0.109193
    X35 FAC9 -0.503495
    X35 FAC13 -0.0119339
    X35 FAC14 0.742846
    X36 OBJ -0.0702469
    X36 BUDGET 1
    X36 SEC0 1
    X36 FAC0 -0.116751
    X36 FAC4 -0.159358
    X36 FAC12 0.464795
    X36 FAC13 -0.0040999
    X36 FAC14 0.226099
    X37 OBJ -0.0918373
    X37 BUDGET 1
    X37 SEC1 1
    X37 FAC4 -0.116677
    X37 FAC8 -0.0680979
    X38 OBJ -0.129313
    X38 BUDGET 1
    X38 SEC2 1
    X38 FAC0 0.264636
    X38 FAC2 0.118257
    X38 FAC3 -0.00506681
    X38 FAC10 -0.173011
    X38 FAC14 0.547809
    X39 OBJ -0.138869
    X39 BUDGET 1
    X39 SEC3 1
    X39 FAC0 -0.0876017
    X39 FAC1 -0.142447
    X39 FAC8 -0.132453
    X39 FAC11 0.343442
    X39 FAC12 0.23704
    X39 FAC14 -0.0656279
    X40 OBJ -0.104714
    X40 BUDGET 1
    X40 SEC4 1
    X40 FAC0 -0.220588
    X40 FAC1 0.210798
    X40 FAC2 -0.399649
    X40 FAC4 -0.106125
    X40 FAC5 0.362889
    X40 FAC6 0.300053
    X40 FAC8 -0.23185
    X40 FAC9 0.103617
    X40 FAC10 0.290126
    X41 OBJ -0.0741379
    X41 BUDGET 1
    X41 SEC5 1
    X41 FAC3 0.027858
    X41 FAC4 0.200541
    X41 FAC11 -0.378287
    X41 FAC14 -0.0353615
    X42 OBJ -0.0682097
    X42 BUDGET 1
    X42 SEC6 1
    X42 FAC1 0.0756094
    X42 FAC3 -0.356136
    X42 FAC7 -0.502587
    X42 FAC10 -0.51312
    X43 OBJ -0.0408359
    X43 BUDGET 1
    X43 SEC7 1
    X43 FAC1 0.479186
    X43 FAC3 -0.327928
    X43 FAC4 0.292838
    X43 FAC6 -0.213475
    X43 FAC7 0.100591
    X43 FAC8 0.632094
    X43 FAC11 -0.0790215
    X44 OBJ -0.0746093
    X44 BUDGET 1
    X44 SEC8 1
    X44 FAC5 0.12768
    X44 FAC8 -0.0444407
    X44 FAC10 0.520142
    X44 FAC12 -0.220193
    X44 FAC13 -0.229969
    X45 OBJ -0.0252997
    X45 BUDGET 1
    X45 SEC9 1
    X45 FAC1 0.0538993
    X45 FAC3 0.517411
    X45 FAC7 -0.622989
    X45 FAC10 0.781936
    X46 OBJ -0.12249
    X46 BUDGET 1
    X46 SEC10 1
    X46 FAC1 0.298551
    X46 FAC2 -0.406086
    X46 FAC4 -0.0669367
    X46 FAC7 0.153026
    X46 FAC8 0.262825
    X46 FAC9 0.00992448
    X46 FAC10 -0.37274
    X46 FAC13 -0.597496
    X47 OBJ -0.0889938
    X47 BUDGET 1
    X47 SEC11 1
    X47 FAC6 -0.4225
    X47 FAC9 0.0187152
    X48 OBJ -0.116667
    X48 BUDGET 1
    X48 SEC0 1
    X48 FAC0 -0.097479
    X48 FAC6 0.207748
    X48 FAC7 -0.245326
    X48 FAC11 -0.334843
    X48 FAC12 0.0364275
    X48 FAC13 0.0522546
    X49 OBJ -0.0664297
    X49 BUDGET 1
    X49 SEC1 1
    X49 FAC0 0.346183
    X49 FAC1 0.200616
    X49 FAC4 -0.206609
    X49 FAC5 0.0869663
    X49 FAC6 0.39246
    X49 FAC9 0.463685
    X49 FAC10 0.236474
    X50 OBJ -0.0523046
    X50 BUDGET 1
    X50 SEC2 1
    X50 FAC1 0.304652
    X50 FAC4 -0.486504
    X50 FAC5 -0.186912
    X50 FAC8 -0.128069
    X50 FAC12 -0.390135
    X51 OBJ -0.135616
    X51 BUDGET 1
    X51 SEC3 1
    X51 FAC2 -0.277377
    X51 FAC6 0.411294
    X51 FAC7 -0.00937073
    X51 FAC13 -0.0838962
    X52 OBJ -0.122499
    X52 BUDGET 1
    X52 SEC4 1
    X52 FAC1 0.487878
    X52 FAC2 0.60509
    X52 FAC4 0.0143342
    X52 FAC11 -0.219714
    X53 OBJ -0.147272
    X53 BUDGET 1
    X53 SEC5 1
    X53 FAC8 0.0866453
    X53 FAC10 0.0840941
    X53 FAC11 -0.540651
    X53 FAC13 -0.428579
    X53 FAC14 -0.445119
    X54 OBJ -0.110611
    X54 BUDGET 1
    X54 SEC6 1
    X54 FAC1 -0.119218
    X54 FAC7 -0.448581
    X54 FAC9 0.491169
    X54 FAC10 -0.0605556
    X55 OBJ -0.0573575
    X55 BUDGET 1
    X55 SEC7 1
    X55 FAC0 -0.0513714
    X55 FAC1 -0.00939875
    X55 FAC4 0.202989
    X55 FAC5 0.0967685
    X55 FAC12 -0.465903
    X56 OBJ -0.0650816
    X56 BUDGET 1
    X56 SEC8 1
    X56 FAC2 -0.0848921
    X56 FAC4 0.0997261
    X56 FAC5 -0.150924
    X56 FAC7 -0.485537
    X56 FAC11 0.276901
    X56 FAC13 -0.00943058
    X57 OBJ -0.0479129
    X57 BUDGET 1
    X57 SEC9 1
    X57 FAC2 0.080589
    X57 FAC11 0.0932033
    X57 FAC13 -0.0638345
    X58 OBJ -0.0693097
    X58 BUDGET 1
    X58 SEC10 1
    X58 FAC1 -0.225617
    X58 FAC9 -0.244034
    X58 FAC11 0.368441
    X59 OBJ -0.0800623
    X59 BUDGET 1
    X59 SEC11 1
    X59 FAC1 -0.0912158
    X59 FAC4 -0.237211
    X59 FAC5 -0.00405439
    X59 FAC7 -0.266737
    X59 FAC9 -0.478704
    X59 FAC10 0.0753623
    X59 FAC12 0.643587
    X60 OBJ -0.0455048
    X60 BUDGET 1
    X60 SEC0 1
    X60 FAC1 -0.572935
    X60 FAC2 0.0602104
    X60 FAC9 -0.0508766
    X61 OBJ -0.117383
    X61 BUDGET 1
    X61 SEC1 1
    X61 FAC1 0.107302
    X61 FAC10 0.608481
    X62 OBJ -0.0750654
    X62 BUDGET 1
    X62 SEC2 1
    X62 FAC5 0.294019
    X62 FAC9 0.429666
    X62 FAC11 -0.141453
    X62 FAC13 0.698696
    X63 OBJ -0.113248
    X63 BUDGET 1
    X63 SEC3 1
    X63 FAC6 0.120057
    X63 FAC8 0.274403
    X63 FAC11 0.0462019
    X63 FAC12 -0.299532
    X64 OBJ -0.0657763
    X64 BUDGET 1
    X64 SEC4 1
    X64 FAC0 -0.0789461
    X64 FAC3 -0.487095
    X64 FAC6 -0.357226
    X64 FAC11 -0.377065
    X65 OBJ -0.126103
    X65 BUDGET 1
    X65 SEC5 1
    X65 FAC1 0.148064
    X65 FAC5 0.0463335
    X65 FAC7 0.172034
    X65 FAC8 -0.0861571
    X65 FAC10 -0.0080402
    X66 OBJ -0.140734
    X66 BUDGET 1
    X66 SEC6 1
    X66 FAC1 -0.254176
    X66 FAC5 -0.20778
    X66 FAC6 0.370591
    X66 FAC7 -0.418274
    X66 FAC8 0.130785
    X66 FAC9 -0.13659
    X66 FAC12 -0.171003
    X67 OBJ -0.135848
    X67 BUDGET 1
    X67 SEC7 1
    X67 FAC6 0.12982
    X67 FAC11 0.345479
    X67 FAC12 -0.224027
    X67 FAC13 -0.268521
    X68 OBJ -0.0838784
    X68 BUDGET 1
    X68 SEC8 1
    X68 FAC3 -0.181958
    X68 FAC10 0.283687
    X68 FAC13 0.35078
    X69 OBJ -0.147623
    X69 BUDGET 1
    X69 SEC9 1
    X69 FAC3 0.288987
    X69 FAC12 0.288612
    X70 OBJ -0.127605
    X70 BUDGET 1
    X70 SEC10 1
    X70 FAC2 -0.124486
    X70 FAC9 0.364533
    X70 FAC11 0.220095
    X71 OBJ -0.0590528
    X71 BUDGET 1
    X71 SEC11 1
    X71 FAC0 -0.249332
    X71 FAC11 -0.629058
    X72 OBJ -0.0435688
    X72 BUDGET 1
    X72 SEC0 1
    X72 FAC0 -0.102059
    X72 FAC6 0.656788
    X72 FAC13 0.0775033
    X72 FAC14 0.0349984
    X73 OBJ -0.0947918
    X73 BUDGET 1
    X73 SEC1 1
    X73 FAC2 0.304861
    X73 FAC7 -0.261562
    X73 FAC9 -0.0307209
    X73 FAC10 -0.0432847
    X73 FAC12 -0.126003
    X73 FAC14 0.0270462
    X74 OBJ -0.113516
    X74 BUDGET 1
    X74 SEC2 1
    X74 FAC0 0.0199321
    X74 FAC1 0.192244
    X74 FAC6 0.325748
    X74 FAC9 0.340927
    X74 FAC12 -0.433255
    X74 FAC14 -0.040212
    X75 OBJ -0.114827
    X75 BUDGET 1
    X75 SEC3 1
    X75 FAC0 -0.222346
    X75 FAC1 0.265468
    X75 FAC6 -0.0835773
    X76 OBJ -0.0278829
    X76 BUDGET 1
    X76 SEC4 1
    X77 OBJ -0.0568302
    X77 BUDGET 1
    X77 SEC5 1
    X77 FAC0 0.27252
    X77 FAC1 0.352422
    X77 FAC4 -0.186598
    X77 FAC9 -0.323129
    X77 FAC13 0.43787
    X78 OBJ -0.046056
    X78 BUDGET 1
    X78 SEC6 1
    X78 FAC2 0.353373
    X78 FAC4 0.280918
    X78 FAC5 -0.0037846
    X78 FAC7 0.531352
    X78 FAC10 0.561231
    X79 OBJ -0.0450008
    X79 BUDGET 1
    X79 SEC7 1
    X79 FAC0 0.306661
    X79 FAC6 -0.98677
    X79 FAC8 -0.283959
    X79 FAC11 0.226042
    X79 FAC13 0.158256
    X79 FAC14 -0.600485
    X80 OBJ -0.0937339
    X80 BUDGET 1
    X80 SEC8 1
    X80 FAC0 0.0362468
    X80 FAC7 -0.195306
    X80 FAC8 -0.0473701
    X80 FAC9 -0.363529
    X80 FAC14 -0.120642
    X81 OBJ -0.0716616
    X81 BUDGET 1
    X81 SEC9 1
    X81 FAC0 -0.223814
    X81 FAC7 0.0585213
    X81 FAC10 -0.22388
    X82 OBJ -0.122229
    X82 BUDGET 1
    X82 SEC10 1
    X82 FAC3 -0.0554353
    X82 FAC4 -0.0220922
    X82 FAC6 0.709984
    X82 FAC9 0.103579
    X82 FAC10 -0.206747
    X82 FAC12 -0.0120834
    X82 FAC14 -0.16632
    X83 OBJ -0.0453635
    X83 BUDGET 1
    X83 SEC11 1
    X83 FAC0 -0.190288
    X83 FAC4 0.0929562
    X83 FAC6 -0.519781
    X83 FAC13 0.24948
    X83 FAC14 -0.444672
    X84 OBJ -0.0388124
    X84 BUDGET 1
    X84 SEC0 1
    X84 FAC1 -0.165562
    X84 FAC3 0.0758892
    X84 FAC5 -0.568872
    X84 FAC9 -0.10172
    X84 FAC12 0.0137462
    X84 FAC14 0.00985401
    X85 OBJ -0.148833
    X85 BUDGET 1
    X85 SEC1 1
    X85 FAC2 -0.201082
    X85 FAC3 -0.082041
    X85 FAC5 0.0626529
    X85 FAC7 -0.0960606
    X85 FAC8 0.256539
    X85 FAC9 -0.181263
    X85 FAC10 0.318975
    X85 FAC13 0.147385
    X85 FAC14 0.0708755
    X86 OBJ -0.11251
    X86 BUDGET 1
    X86 SEC2 1
    X86 FAC0 -0.112733
    X86 FAC3 -0.0613008
    X86 FAC4 0.357948
    X86 FAC7 0.305457
    X86 FAC8 0.0333027
    X86 FAC10 0.305439
    X87 OBJ -0.0220079
    X87 BUDGET 1
    X87 SEC3 1
    X87 FAC3 -0.221458
    X87 FAC5 -0.521186
    X87 FAC8 0.323406
    X87 FAC10 0.0404903
    X88 OBJ -0.0695806
    X88 BUDGET 1
    X88 SEC4 1
    X88 FAC1 -0.519202
    X88 FAC6 0.533735
    X88 FAC8 -0.0575509
    X88 FAC9 -0.127235
    X88 FAC11 -0.382046
    X88 FAC12 -0.264834
    X88 FAC13 0.319021
    X89 OBJ -0.0333724
    X89 BUDGET 1
    X89 SEC5 1
    X89 FAC2 0.229945
    X89 FAC3 0.353322
    X89 FAC4 -0.0142336
    X89 FAC5 0.135042
    X89 FAC8 -0.0909698
    X89 FAC11 -0.324799
    X90 OBJ -0.0714324
    X90 BUDGET 1
    X90 SEC6 1
    X90 FAC3 0.627539
    X90 FAC11 0.750503
    X90 FAC13 0.0822573
    X91 OBJ -0.0673762
    X91 BUDGET 1
    X91 SEC7 1
    X91 FAC1 0.324644
    X91 FAC2 -0.145257
    X91 FAC3 -0.510003
    X91 FAC9 0.0982978
    X91 FAC11 0.104218
    X92 OBJ -0.0876397
    X92 BUDGET 1
    X92 SEC8 1
    X92 FAC2 0.215951
    X92 FAC5 0.622236
    X92 FAC7 0.418821
    X92 FAC10 -0.113346
    X92 FAC11 -0.111818
    X92 FAC13 -0.00533287
    X93 OBJ -0.0992938
    X93 BUDGET 1
    X93 SEC9 1
    X93 FAC2 -0.128539
    X93 FAC9 -0.0638693
    X93 FAC12 -0.353873
    X94 OBJ -0.0923649
    X94 BUDGET 1
    X94 SEC10 1
    X94 FAC1 -0.250323
    X94 FAC3 0.0196842
    X94 FAC4 -0.223021
    X94 FAC5 0.233719
    X94 FAC9 -0.117969
    X94 FAC11 -0.74992
    X95 OBJ -0.130499
    X95 BUDGET 1
    X95 SEC11 1
    X95 FAC9 -0.0192234
    X96 OBJ -0.121879
    X96 BUDGET 1
    X96 SEC0 1
    X96 FAC6 0.0202591
    X97 OBJ -0.0595243
    X97 BUDGET 1
    X97 SEC1 1
    X97 FAC0 0.352364
    X97 FAC1 0.180747
    X97 FAC7 0.590073
    X97 FAC8 -0.293929
    X97 FAC9 0.322985
    X98 OBJ -0.10908
    X98 BUDGET 1
    X98 SEC2 1
    X98 FAC7 0.139611
    X99 OBJ -0.101199
    X99 BUDGET 1
    X99 SEC3 1
    X99 FAC4 0.344709
    X99 FAC7 -0.756115
    X99 FAC14 0.0891579
    X100 OBJ -0.0444541
    X100 BUDGET 1
    X100 SEC4 1
    X100 FAC0 -0.347915
    X100 FAC6 0.448402
    X100 FAC9 -0.278993
    X100 FAC14 0.380802
    X101 OBJ -0.104085
    X101 BUDGET 1
    X101 SEC5 1
    X101 FAC4 -0.0051174
    X101 FAC5 -0.00849562
    X101 FAC6 0.142221
    X101 FAC7 0.552851
    X101 FAC10 0.0786651
    X101 FAC11 -0.0341589
    X101 FAC14 0.26268
    X102 OBJ -0.0329292
    X102 BUDGET 1
    X102 SEC6 1
    X102 FAC5 -0.306446
    X102 FAC9 0.251765
    X102 FAC10 -0.534472
    X103 OBJ -0.144804
    X103 BUDGET 1
    X103 SEC7 1
    X103 FAC2 0.248135
    X103 FAC5 0.222337
    X103 FAC8 -0.570359
    X103 FAC9 0.121381
    X103 FAC11 -0.149773
    X103 FAC13 0.289473
    X104 OBJ -0.0360276
    X104 BUDGET 1
    X104 SEC8 1
    X104 FAC2 0.0623229
    X104 FAC3 0.0462405
    X104 FAC4 -0.215853
    X104 FAC7 0.0362082
    X104 FAC8 0.127225
    X104 FAC10 0.534932
    X104 FAC12 -0.199034
    X105 OBJ -0.144592
    X105 BUDGET 1
    X105 SEC9 1
    X105 FAC0 -0.338922
    X105 FAC1 0.107916
    X105 FAC3 0.062986
    X105 FAC7 0.224536
    X105 FAC9 -0.10679
    X105 FAC12 0.110351
    X106 OBJ -0.0937985
    X106 BUDGET 1
    X106 SEC10 1
    X106 FAC2 -0.259033
    X106 FAC5 -0.524967
    X106 FAC9 -0.237181
    X106 FAC10 -0.104253
    X106 FAC11 0.0507718
    X107 OBJ -0.131966
    X107 BUDGET 1
    X107 SEC11 1
    X107 FAC0 0.23905
    X107 FAC1 -0.444852
    X107 FAC7 -0.0836269
    X107 FAC11 -0.496298
    X107 FAC14 -0.438831
    X108 OBJ -0.0410617
    X108 BUDGET 1
    X108 SEC0 1
    X108 FAC0 0.096141
    X108 FAC1 -0.277523
    X108 FAC4 -0.207786
    X108 FAC6 0.329862
    X108 FAC10 -0.262309
    X108 FAC11 0.44819
    X108 FAC12 -0.249692
    X108 FAC13 0.325486
    X108 FAC14 -0.406745
    X109 OBJ -0.138883
    X109 BUDGET 1
    X109 SEC1 1
    X109 FAC1 -0.341631
    X109 FAC6 -0.61286
    X109 FAC14 -0.388574
    X110 OBJ -0.0756856
    X110 BUDGET 1
    X110 SEC2 1
    X110 FAC2 -0.0067112
    X110 FAC5 0.0894224
    X110 FAC10 -0.262923
    X110 FAC12 -0.102921
    X110 FAC14 0.119359
    X111 OBJ -0.0514225
    X111 BUDGET 1
    X111 SEC3 1
    X111 FAC4 0.430692
    X111 FAC6 0.249198
    X111 FAC10 0.104634
    X112 OBJ -0.0348822
    X112 BUDGET 1
    X112 SEC4 1
    X112 FAC0 0.130514
    X112 FAC1 -0.156797
    X112 FAC2 -0.152204
    X112 FAC4 -0.441051
    X112 FAC8 -0.0398115
    X112 FAC11 -0.0192924
    X113 OBJ -0.0835539
    X113 BUDGET 1
    X113 SEC5 1
    X113 FAC1 0.0373279
    X113 FAC7 0.0103561
    X113 FAC8 -0.0457619
    X113 FAC11 -0.0543726
    X113 FAC12 0.375025
    X113 FAC14 0.442469
    X114 OBJ -0.127951
    X114 BUDGET 1
    X114 SEC6 1
    X114 FAC2 -0.120133
    X114 FAC7 0.234582
    X114 FAC8 0.385311
    X115 OBJ -0.0589444
    X115 BUDGET 1
    X115 SEC7 1
    X115 FAC1 0.17214
    X115 FAC3 0.743728
    X115 FAC4 -0.277361
    X115 FAC5 0.181285
    X115 FAC7 -0.0724321
    X115 FAC12 0.190156
    X116 OBJ -0.106594
    X116 BUDGET 1
    X116 SEC8 1
    X116 FAC2 0.306512
    X116 FAC3 0.361842
    X116 FAC5 -0.135028
    X116 FAC6 0.148863
    X116 FAC14 -0.298181
    X117 OBJ -0.0991893
    X117 BUDGET 1
    X117 SEC9 1
    X117 FAC0 0.668572
    X117 FAC3 0.3204
    X117 FAC6 -0.169462
    X117 FAC8 -0.419097
    X118 OBJ -0.034853
    X118 BUDGET 1
    X118 SEC10 1
    X118 FAC0 -0.29134
    X118 FAC1 0.241038
    X118 FAC3 -0.305284
    X118 FAC4 -0.207372
    X118 FAC7 0.13186
    X118 FAC10 0.0648104
    X118 FAC12 0.555989
    X119 OBJ -0.0348997
    X119 BUDGET 1
    X119 SEC11 1
    X119 FAC2 -0.222044
    X119 FAC5 -0.373925
    X119 FAC7 0.0959244
    X119 FAC9 -0.0238018
    X119 FAC10 -0.288568
    X119 FAC12 0.145149
    X120 OBJ -0.133376
    X120 BUDGET 1
    X120 SEC0 1
    X120 FAC3 -0.447391
    X120 FAC9 0.342474
    X120 FAC12 -0.351128
    X120 FAC14 0.51552
    X121 OBJ -0.140296
    X121 BUDGET 1
    X121 SEC1 1
    X121 FAC1 0.163333
    X121 FAC2 0.540819
    X121 FAC4 -0.187947
    X121 FAC5 -0.414264
    X121 FAC6 -0.344542
    X121 FAC8 0.112985
    X121 FAC9 0.271145
    X122 OBJ -0.0645078
    X122 BUDGET 1
    X122 SEC2 1
    X122 FAC0 0.609491
    X122 FAC2 0.00679721
    X122 FAC3 -0.188307
    X122 FAC6 0.411539
    X122 FAC11 0.100069
    X122 FAC14 -0.184013
    X123 OBJ -0.0669281
    X123 BUDGET 1
    X123 SEC3 1
    X123 FAC4 0.237617
    X123 FAC5 0.129006
    X123 FAC8 -0.272319
    X123 FAC9 -0.354871
    X123 FAC10 0.233886
    X124 OBJ -0.0928817
    X124 BUDGET 1
    X124 SEC4 1
    X124 FAC6 2.54007e-06
    X125 OBJ -0.0655559
    X125 BUDGET 1
    X125 SEC5 1
    X125 FAC2 0.138102
    X125 FAC6 -0.226266
    X125 FAC7 0.0945724
    X125 FAC8 -0.131491
    X125 FAC14 -0.232386
    X126 OBJ -0.114465
    X126 BUDGET 1
    X126 SEC6 1
    X126 FAC5 -0.102868
    X126 FAC6 0.776707
    X126 FAC11 0.430057
    X126 FAC14 0.0030694
    X127 OBJ -0.0548466
    X127 BUDGET 1
    X127 SEC7 1
    X127 FAC1 -0.0647472
    X127 FAC3 0.478375
    X127 FAC5 0.361068
    X127 FAC9 -0.223546
    X127 FAC11 0.57015
    X127 FAC12 0.595902
    X128 OBJ -0.0624775
    X128 BUDGET 1
    X128 SEC8 1
    X128 FAC5 0.140846
    X128 FAC7 0.189864
    X128 FAC10 0.193018
    X128 FAC12 -0.344802
    X128 FAC14 0.174898
    X129 OBJ -0.114138
    X129 BUDGET 1
    X129 SEC9 1
    X129 FAC1 -0.0925251
    X129 FAC3 -0.138363
    X129 FAC13 0.122224
    X130 OBJ -0.120439
    X130 BUDGET 1
    X130 SEC10 1
    X130 FAC2 0.49441
    X130 FAC5 -0.340399
    X130 FAC10 -0.0193562
    X130 FAC12 -0.15854
    X130 FAC13 -0.0281331
    X131 OBJ -0.0436365
    X131 BUDGET 1
    X131 SEC11 1
    X131 FAC2 -0.216134
    X131 FAC4 -0.440688
    X131 FAC5 -0.0392867
    X131 FAC14 0.220156
    X132 OBJ -0.0285071
    X132 BUDGET 1
    X132 SEC0 1
    X132 FAC3 0.28341
    X132 FAC7 0.120957
    X132 FAC8 0.0247457
    X132 FAC9 -0.319016
    X132 FAC10 -0.0247785
    X132 FAC11 0.429701
    X132 FAC13 0.158717
    X133 OBJ -0.0547459
    X133 BUDGET 1
    X133 SEC1 1
    X133 FAC2 0.0741067
    X133 FAC6 0.165942
    X133 FAC10 0.369209
    X134 OBJ -0.132316
    X134 BUDGET 1
    X134 SEC2 1
    X134 FAC1 -0.144201
    X134 FAC3 -0.0223047
    X134 FAC5 0.0119274
    X134 FAC6 0.135399
    X134 FAC8 0.358318
    X134 FAC12 -0.568245
    X134 FAC13 -0.119984
    X134 FAC14 0.442834
    X135 OBJ -0.0501117
    X135 BUDGET 1
    X135 SEC3 1
    X135 FAC1 -0.911248
    X135 FAC4 -0.11474
    X135 FAC6 0.1697
    X135 FAC8 -0.0818503
    X135 FAC11 0.21283
    X135 FAC14 -0.279519
    X136 OBJ -0.13481
    X136 BUDGET 1
    X136 SEC4 1
    X136 FAC1 -0.103859
    X136 FAC2 -0.21106
    X136 FAC3 0.306785
    X136 FAC6 0.0168859
    X137 OBJ -0.0613745
    X137 BUDGET 1
    X137 SEC5 1
    X137 FAC5 -0.0307825
    X137 FAC8 0.000318181
    X137 FAC11 -0.0474756
    X138 OBJ -0.110245
    X138 BUDGET 1
    X138 SEC6 1
    X138 FAC5 -0.141327
    X138 FAC11 0.33978
    X139 OBJ -0.0996658
    X139 BUDGET 1
    X139 SEC7 1
    X139 FAC4 0.35962
    X139 FAC6 -0.285374
    X139 FAC10 0.184271
    X139 FAC11 -0.330302
    X140 OBJ -0.0424058
    X140 BUDGET 1
    X140 SEC8 1
    X140 FAC6 0.162254
    X140 FAC10 -0.129713
    X140 FAC11 -0.187918
    X141 OBJ -0.03144
    X141 BUDGET 1
    X141 SEC9 1
    X141 FAC7 0.121847
    X141 FAC9 0.259699
    X141 FAC13 -0.118545
    X141 FAC14 -0.371607
    X142 OBJ -0.113363
    X142 BUDGET 1
    X142 SEC10 1
    X142 FAC0 0.100111
    X142 FAC2 -0.199526
    X142 FAC5 0.471075
    X142 FAC8 -0.24698
    X142 FAC12 0.363067
    X143 OBJ -0.0952311
    X143 BUDGET 1
    X143 SEC11 1
    X143 FAC1 -0.237107
    X143 FAC7 -0.0111154
    X143 FAC12 0.29283
    X144 OBJ -0.129145
    X144 BUDGET 1
    X144 SEC0 1
    X144 FAC10 0.162631
    X144 FAC13 0.344716
    X144 FAC14 -0.489593
    X145 OBJ -0.0314725
    X145 BUDGET 1
    X145 SEC1 1
    X145 FAC2 -0.257798
    X145 FAC6 0.11304
    X145 FAC11 0.290912
    X145 FAC14 -0.239814
    X146 OBJ -0.0606953
    X146 BUDGET 1
    X146 SEC2 1
    X146 FAC0 0.0170847
    X146 FAC5 0.202222
    X146 FAC8 -0.567394
    X146 FAC9 -0.352447
    X147 OBJ -0.0460346
    X147 BUDGET 1
    X147 SEC3 1
    X147 FAC2 -0.119699
    X147 FAC8 -0.0711235
    X148 OBJ -0.0275031
    X148 BUDGET 1
    X148 SEC4 1
    X148 FAC2 0.238703
    X148 FAC4 0.155535
    X148 FAC11 0.107547
    X148 FAC12 -0.0887159
    X148 FAC14 0.143145
    X149 OBJ -0.0323806
    X149 BUDGET 1
    X149 SEC5 1
    X149 FAC4 -0.37903
    X149 FAC5 0.254542
    X149 FAC6 0.0293141
    X149 FAC8 0.082573
    X149 FAC9 0.228671
    X149 FAC11 0.129588
    X150 OBJ -0.123918
    X150 BUDGET 1
    X150 SEC6 1
    X150 FAC2 0.312892
    X150 FAC3 -0.293919
    X150 FAC5 0.472234
    X150 FAC8 -0.107263
    X150 FAC10 -0.886043
    X150 FAC13 0.463327
    X151 OBJ -0.0845516
    X151 BUDGET 1
    X151 SEC7 1
    X151 FAC1 0.596505
    X151 FAC4 -0.0573581
    X151 FAC5 0.0841451
    X151 FAC7 -0.628741
    X151 FAC9 0.638426
    X151 FAC13 0.456488
    X152 OBJ -0.0521615
    X152 BUDGET 1
    X152 SEC8 1
    X152 FAC1 -0.0592897
    X152 FAC2 0.245423
    X152 FAC4 0.5009
    X152 FAC7 0.168227
    X152 FAC9 0.0963842
    X152 FAC14 0.127221
    X153 OBJ -0.142401
    X153 BUDGET 1
    X153 SEC9 1
    X153 FAC4 -0.512151
    X153 FAC5 -0.343434
    X153 FAC8 0.175919
    X153 FAC12 -0.0360696
    X153 FAC14 -0.155017
    X154 OBJ -0.0852335
    X154 BUDGET 1
    X154 SEC10 1
    X154 FAC1 -0.159189
    X154 FAC7 -4.5771e-05
    X154 FAC8 0.17329
    X154 FAC9 0.283999
    X154 FAC10 -0.225286
    X154 FAC12 0.192892
    X155 OBJ -0.028078
    X155 BUDGET 1
    X155 SEC11 1
    X155 FAC0 0.103715
    X155 FAC3 0.338998
    X155 FAC9 0.311391
    X155 FAC13 -0.0158268
    X156 OBJ -0.0647615
    X156 BUDGET 1
    X156 SEC0 1
    X156 FAC0 -0.487801
    X156 FAC1 -0.0510016
    X156 FAC11 -0.26414
    X157 OBJ -0.113268
    X157 BUDGET 1
    X157 SEC1 1
    X157 FAC1 -0.438041
    X157 FAC3 0.0957496
    X158 OBJ -0.144922
    X158 BUDGET 1
    X158 SEC2 1
    X158 FAC2 -0.517652
    X158 FAC3 0.103948
    X158 FAC5 -0.106523
    X158 FAC6 -0.314435
    X159 OBJ -0.12735
    X159 BUDGET 1
    X159 SEC3 1
    X159 FAC1 0.328228
    X159 FAC6 0.466872
    X159 FAC8 -0.421563
    X159 FAC13 -0.351419
    X160 OBJ -0.100506
    X160 BUDGET 1
    X160 SEC4 1
    X160 FAC0 -0.203007
    X160 FAC5 -0.12524
    X160 FAC7 -0.0846644
    X160 FAC8 0.17163
    X160 FAC11 -0.31708
    X161 OBJ -0.085878
    X161 BUDGET 1
    X161 SEC5 1
    X161 FAC1 0.262795
    X161 FAC3 0.00785134
    X161 FAC4 0.00135469
    X161 FAC8 0.0829441
    X162 OBJ -0.0298674
    X162 BUDGET 1
    X162 SEC6 1
    X162 FAC13 -0.110755
    X163 OBJ -0.0924637
    X163 BUDGET 1
    X163 SEC7 1
    X163 FAC5 0.0741102
    X163 FAC8 -0.145008
    X163 FAC11 0.387829
    X163 FAC13 -0.311835
    X164 OBJ -0.0907574
    X164 BUDGET 1
    X164 SEC8 1
    X164 FAC9 -0.206415
    X164 FAC13 -0.333889
    X165 OBJ -0.0410794
    X165 BUDGET 1
    X165 SEC9 1
    X165 FAC1 0.0377645
    X165 FAC2 -0.0920342
    X165 FAC6 0.262423
    X165 FAC7 -0.670132
    X165 FAC10 0.0192483
    X165 FAC13 -0.299631
    X165 FAC14 -0.275714
    X166 OBJ -0.102825
    X166 BUDGET 1
    X166 SEC10 1
    X166 FAC2 0.177963
    X166 FAC8 0.435985
    X166 FAC10 -0.508908
    X166 FAC12 -0.0116646
    X167 OBJ -0.14219
    X167 BUDGET 1
    X167 SEC11 1
    X167 FAC0 0.0863798
    X167 FAC1 -0.342477
    X167 FAC6 -0.160809
    X168 OBJ -0.0644268
    X168 BUDGET 1
    X168 SEC0 1
    X168 FAC3 -0.255738
    X168 FAC7 0.266814
    X168 FAC9 0.302918
    X169 OBJ -0.129823
    X169 BUDGET 1
    X169 SEC1 1
    X169 FAC2 -0.183786
    X169 FAC12 0.13307
    X169 FAC14 0.448651
    X170 OBJ -0.0984359
    X170 BUDGET 1
    X170 SEC2 1
    X170 FAC1 -0.0491003
    X170 FAC2 -0.207862
    X170 FAC8 -0.140572
    X170 FAC9 0.225888
    X170 FAC11 0.0164206
    X171 OBJ -0.127561
    X171 BUDGET 1
    X171 SEC3 1
    X171 FAC0 -0.10342
    X171 FAC1 0.187935
    X171 FAC4 0.198748
    X171 FAC6 -0.290648
    X171 FAC8 0.461795
    X171 FAC10 0.314934
    X171 FAC11 0.00924218
    X172 OBJ -0.0865713
    X172 BUDGET 1
    X172 SEC4 1
    X172 FAC1 -0.667146
    X172 FAC6 0.731761
    X172 FAC8 0.43566
    X172 FAC12 -0.129637
    X172 FAC14 -0.168141
    X173 OBJ -0.0770198
    X173 BUDGET 1
    X173 SEC5 1
    X173 FAC0 -0.459836
    X173 FAC2 0.0376501
    X173 FAC10 -0.382712
    X173 FAC11 -0.596781
    X173 FAC14 -0.0489058
    X174 OBJ -0.0412741
    X174 BUDGET 1
    X174 SEC6 1
    X174 FAC3 -0.127334
    X174 FAC7 -0.250579
    X174 FAC8 -0.295361
    X175 OBJ -0.0341526
    X175 BUDGET 1
    X175 SEC7 1
    X175 FAC2 -0.428074
    X175 FAC3 -0.650821
    X175 FAC12 -0.0872848
    X175 FAC13 -0.0892044
    X176 OBJ -0.127941
    X176 BUDGET 1
    X176 SEC8 1
    X176 FAC2 -0.387942
    X176 FAC5 0.186797
    X176 FAC9 -0.376105
    X176 FAC10 -0.244506
    X176 FAC11 0.164386
    X176 FAC13 -0.102546
    X177 OBJ -0.111908
    X177 BUDGET 1
    X177 SEC9 1
    X177 FAC1 -0.314967
    X177 FAC3 0.298197
    X177 FAC6 -0.0556061
    X177 FAC10 -0.341128
    X177 FAC11 0.219424
    X177 FAC12 -0.215471
    X178 OBJ -0.102407
    X178 BUDGET 1
    X178 SEC10 1
    X178 FAC1 0.0178526
    X178 FAC2 -0.534464
    X178 FAC3 0.0806954
    X178 FAC4 -0.0415627
    X178 FAC5 -0.691887
    X178 FAC10 -0.0328123
    X178 FAC12 -0.0472608
    X179 OBJ -0.124918
    X179 BUDGET 1
    X179 SEC11 1
    X179 FAC0 0.141461
    X179 FAC4 0.0107992
    X179 FAC12 -0.355069
    X179 FAC13 -0.125915
    X180 OBJ -0.11685
    X180 BUDGET 1
    X180 SEC0 1
    X180 FAC0 -0.263029
    X180 FAC2 0.480856
    X180 FAC4 0.130928
    X180 FAC8 -0.0625696
    X180 FAC12 0.171561
    X180 FAC14 -0.188335
    X181 OBJ -0.147214
    X181 BUDGET 1
    X181 SEC1 1
    X181 FAC1 -0.131315
    X182 OBJ -0.108512
    X182 BUDGET 1
    X182 SEC2 1
    X182 FAC3 -0.0669037
    X182 FAC7 0.0867048
    X182 FAC9 -0.263825
    X183 OBJ -0.149254
    X183 BUDGET 1
    X183 SEC3 1
    X183 FAC1 -0.000491012
    X183 FAC2 -0.309374
    X183 FAC3 -0.510494
    X183 FAC10 0.442799
    X184 OBJ -0.145534
    X184 BUDGET 1
    X184 SEC4 1
    X184 FAC0 0.426493
    X184 FAC7 0.0839114
    X184 FAC8 0.152037
    X184 FAC9 -0.635228
    X184 FAC10 0.193479
    X184 FAC11 0.886691
    X185 OBJ -0.117907
    X185 BUDGET 1
    X185 SEC5 1
    X185 FAC0 0.00318274
    X185 FAC2 -0.0710062
    X185 FAC3 -0.419973
    X185 FAC9 0.0957816
    X185 FAC10 -0.282988
    X185 FAC11 -0.0259205
    X185 FAC12 0.792131
    X185 FAC14 -0.031407
    X186 OBJ -0.0431259
    X186 BUDGET 1
    X186 SEC6 1
    X186 FAC0 0.10087
    X186 FAC4 -0.290649
    X186 FAC8 -0.102051
    X186 FAC12 0.189098
    X186 FAC13 -0.239757
    X186 FAC14 -0.604981
    X187 OBJ -0.0963077
    X187 BUDGET 1
    X187 SEC7 1
    X187 FAC1 -0.0840073
    X187 FAC6 -0.106438
    X187 FAC7 -0.584456
    X187 FAC8 -0.0545737
    X187 FAC12 -0.0539934
    X188 OBJ -0.052278
    X188 BUDGET 1
    X188 SEC8 1
    X188 FAC1 0.221953
    X188 FAC4 -0.072788
    X188 FAC10 -0.197987
    X188 FAC13 -0.316756
    X188 FAC14 -0.0591737
    X189 OBJ -0.112498
    X189 BUDGET 1
    X189 SEC9 1
    X189 FAC0 -0.253187
    X189 FAC1 -0.231165
    X189 FAC2 0.140069
    X189 FAC3 -0.0551865
    X189 FAC8 -0.0854653
    X189 FAC13 -0.487971
    X190 OBJ -0.0511659
    X190 BUDGET 1
    X190 SEC10 1
    X190 FAC0 -0.136762
    X190 FAC1 0.155789
    X190 FAC2 -0.296288
    X190 FAC4 0.153097
    X190 FAC7 0.14775
    X190 FAC8 0.242589
    X190 FAC11 -0.435447
    X190 FAC13 -0.0298135
    X191 OBJ -0.0898265
    X191 BUDGET 1
    X191 SEC11 1
    X191 FAC0 0.408849
    X191 FAC2 -0.00258075
    X191 FAC9 -0.0586003
    X191 FAC11 -0.400726
    X191 FAC12 -0.314394
    X191 FAC13 -0.0721622
    X191 FAC14 0.00266966
    X192 OBJ -0.072259
    X192 BUDGET 1
    X192 SEC0 1
    X192 FAC1 0.396943
    X192 FAC3 0.355454
    X192 FAC8 -0.0516119
    X192 FAC10 -0.331324
    X192 FAC11 0.000870682
    X193 OBJ -0.106927
    X193 BUDGET 1
    X193 SEC1 1
    X193 FAC0 0.125316
    X193 FAC2 -0.126985
    X193 FAC4 0.369539
    X193 FAC6 -0.10948
    X193 FAC7 -0.553659
    X193 FAC8 -0.52344
    X193 FAC9 0.392078
    X193 FAC11 0.0550621
    X193 FAC12 -0.197287
    X194 OBJ -0.106022
    X194 BUDGET 1
    X194 SEC2 1
    X194 FAC2 -0.345889
    X194 FAC5 -0.120978
    X194 FAC6 0.0717763
    X194 FAC7 0.189865
    X195 OBJ -0.0516869
    X195 BUDGET 1
    X195 SEC3 1
    X195 FAC5 -0.759866
    X195 FAC6 -0.311885
    X195 FAC7 0.23404
    X195 FAC9 -0.0241745
    X195 FAC12 -0.285515
    X196 OBJ -0.107374
    X196 BUDGET 1
    X196 SEC4 1
    X196 FAC1 0.446192
    X196 FAC4 -0.0696744
    X196 FAC7 0.684542
    X196 FAC8 -0.318766
    X196 FAC12 0.0261837
    X197 OBJ -0.048934
    X197 BUDGET 1
    X197 SEC5 1
    X197 FAC0 0.282056
    X197 FAC1 -0.158153
    X197 FAC4 -0.0360514
    X197 FAC11 0.0561834
    X197 FAC13 -0.00648722
    X198 OBJ -0.119681
    X198 BUDGET 1
    X198 SEC6 1
    X198 FAC5 -0.0257761
    X198 FAC6 0.252497
    X198 FAC12 -0.369528
    X198 FAC14 -0.0349418
    X199 OBJ -0.0206175
    X199 BUDGET 1
    X199 SEC7 1
    X199 FAC0 0.00888492
    X199 FAC1 0.0251168
    X199 FAC2 0.214352
    X199 FAC3 0.859453
    X199 FAC4 -0.728211
    X199 FAC5 0.317257
    X199 FAC11 -0.118193
    X199 FAC12 -0.0425355
    X199 FAC13 0.329589
    X199 FAC14 0.32569
    X200 OBJ -0.11474
    X200 BUDGET 1
    X200 SEC8 1
    X200 FAC2 -0.346945
    X200 FAC3 0.166009
    X200 FAC4 0.104372
    X200 FAC6 0.27691
    X200 FAC9 0.167505
    X200 FAC13 0.100798
    X200 FAC14 0.200275
    X201 OBJ -0.045054
    X201 BUDGET 1
    X201 SEC9 1
    X201 FAC1 0.331263
    X201 FAC3 0.0168723
    X201 FAC6 -0.314402
    X201 FAC8 0.108717
    X201 FAC12 -0.414698
    X202 OBJ -0.040455
    X202 BUDGET 1
    X202 SEC10 1
    X202 FAC0 -0.0750666
    X202 FAC7 0.55692
    X202 FAC9 -0.343263
    X202 FAC10 -0.109332
    X202 FAC14 -0.260655
    X203 OBJ -0.067169
    X203 BUDGET 1
    X203 SEC11 1
    X203 FAC3 -0.243495
    X203 FAC4 0.261571
    X203 FAC5 -0.22475
    X203 FAC7 0.141987
    X204 OBJ -0.0792446
    X204 BUDGET 1
    X204 SEC0 1
    X204 FAC1 -0.310605
    X204 FAC2 -0.653224
    X204 FAC3 0.077708
    X204 FAC6 -0.454369
    X204 FAC9 -0.208741
    X204 FAC11 -0.0947455
    X204 FAC12 0.0221033
    X204 FAC14 -0.0900461
    X205 OBJ -0.0891412
    X205 BUDGET 1
    X205 SEC1 1
    X205 FAC1 -0.0712616
    X205 FAC2 -0.0296632
    X205 FAC4 0.314603
    X205 FAC5 -0.147294
    X205 FAC6 0.0264231
    X205 FAC13 0.464717
    X206 OBJ -0.0451756
    X206 BUDGET 1
    X206 SEC2 1
    X206 FAC1 -0.103164
    X206 FAC4 0.0109395
    X206 FAC6 -0.337479
    X206 FAC9 0.00905691
    X206 FAC10 0.274131
    X207 OBJ -0.119245
    X207 BUDGET 1
    X207 SEC3 1
    X207 FAC6 0.193382
    X207 FAC9 -0.217033
    X207 FAC10 -0.259958
    X207 FAC14 0.166044
    X208 OBJ -0.124543
    X208 BUDGET 1
    X208 SEC4 1
    X208 FAC4 0.163641
    X208 FAC6 0.24385
    X208 FAC14 -0.458597
    X209 OBJ -0.10482
    X209 BUDGET 1
    X209 SEC5 1
    X209 FAC0 0.187428
    X209 FAC8 0.122275
    X209 FAC9 -0.191505
    X209 FAC11 -0.0620843
    X209 FAC12 0.206188
    X209 FAC13 0.0111449
    X210 OBJ -0.124312
    X210 BUDGET 1
    X210 SEC6 1
    X210 FAC10 0.199226
    X211 OBJ -0.13446
    X211 BUDGET 1
    X211 SEC7 1
    X211 FAC1 0.184941
    X211 FAC4 -0.216918
    X211 FAC6 0.268623
    X211 FAC9 0.172542
    X211 FAC14 0.0175789
    X212 OBJ -0.134804
    X212 BUDGET 1
    X212 SEC8 1
    X212 FAC5 0.539396
    X212 FAC9 0.338168
    X212 FAC11 0.102566
    X213 OBJ -0.0438345
    X213 BUDGET 1
    X213 SEC9 1
    X213 FAC6 -0.350617
    X213 FAC13 -0.051976
    X214 OBJ -0.0751006
    X214 BUDGET 1
    X214 SEC10 1
    X214 FAC1 0.0509721
    X214 FAC4 -0.30909
    X214 FAC5 0.255898
    X214 FAC7 -0.402082
    X214 FAC8 0.185329
    X214 FAC11 0.0194944
    X215 OBJ -0.112375
    X215 BUDGET 1
    X215 SEC11 1
    X215 FAC0 -0.359977
    X215 FAC1 0.580427
    X215 FAC4 -0.485173
    X215 FAC6 -0.226948
    X215 FAC12 -0.0561703
    X216 OBJ -0.0410506
    X216 BUDGET 1
    X216 SEC0 1
    X216 FAC0 -0.168795
    X216 FAC1 -0.0914268
    X216 FAC3 -0.244846
    X216 FAC10 0.140475
    X216 FAC11 0.0916037
    X216 FAC12 0.235853
    X217 OBJ -0.0657587
    X217 BUDGET 1
    X217 SEC1 1
    X217 FAC2 0.747238
    X217 FAC5 -0.283496
    X217 FAC11 0.392793
    X218 OBJ -0.0388911
    X218 BUDGET 1
    X218 SEC2 1
    X218 FAC9 -0.479231
    X218 FAC11 -0.424739
    X219 OBJ -0.136369
    X219 BUDGET 1
    X219 SEC3 1
    X219 FAC9 0.204072
    X219 FAC13 -0.215992
    X220 OBJ -0.0408291
    X220 BUDGET 1
    X220 SEC4 1
    X220 FAC1 -0.0367355
    X220 FAC3 -0.0984275
    X220 FAC4 -0.219602
    X220 FAC11 -0.0831205
    X220 FAC14 0.00727042
    X221 OBJ -0.0321119
    X221 BUDGET 1
    X221 SEC5 1
    X221 FAC4 0.593351
    X221 FAC5 -0.0447479
    X221 FAC8 -0.0443173
    X221 FAC9 -0.172949
    X222 OBJ -0.0529307
    X222 BUDGET 1
    X222 SEC6 1
    X222 FAC0 -0.373144
    X222 FAC4 -0.0735122
    X222 FAC7 -0.155964
    X222 FAC10 0.492966
    X223 OBJ -0.071471
    X223 BUDGET 1
    X223 SEC7 1
    X223 FAC4 -0.196689
    X223 FAC5 0.341492
    X223 FAC6 -0.307552
    X223 FAC10 -0.0923
    X224 OBJ -0.144215
    X224 BUDGET 1
    X224 SEC8 1
    X224 FAC4 0.29616
    X224 FAC13 0.135152
    X225 OBJ -0.0557645
    X225 BUDGET 1
    X225 SEC9 1
    X225 FAC1 0.113078
    X225 FAC4 -0.0271666
    X225 FAC9 0.390608
    X225 FAC11 0.0245519
    X226 OBJ -0.114942
    X226 BUDGET 1
    X226 SEC10 1
    X226 FAC1 -0.14533
    X226 FAC4 0.136932
    X227 OBJ -0.1435
    X227 BUDGET 1
    X227 SEC11 1
    X227 FAC1 0.19964
    X227 FAC3 0.0426254
    X227 FAC7 0.0899189
    X227 FAC10 -0.0309578
    X227 FAC12 0.071626
    X228 OBJ -0.0803924
    X228 BUDGET 1
    X228 SEC0 1
    X228 FAC5 -0.36004
    X228 FAC6 -0.4169
    X228 FAC7 0.271658
    X228 FAC8 0.000249515
    X228 FAC12 -0.180929
    X229 OBJ -0.120252
    X229 BUDGET 1
    X229 SEC1 1
    X229 FAC4 0.110702
    X229 FAC9 0.543461
    X229 FAC12 -0.1275
    X230 OBJ -0.0418069
    X230 BUDGET 1
    X230 SEC2 1
    X230 FAC0 0.343663
    X230 FAC1 -0.0649364
    X230 FAC6 -0.21674
    X230 FAC9 0.188488
    X231 OBJ -0.0465945
    X231 BUDGET 1
    X231 SEC3 1
    X231 FAC0 0.0902353
    X231 FAC14 -0.413002
    X232 OBJ -0.0283692
    X232 BUDGET 1
    X232 SEC4 1
    X232 FAC0 0.192384
    X232 FAC2 0.0667604
    X232 FAC10 -0.301355
    X232 FAC14 -0.0963292
    X233 OBJ -0.137329
    X233 BUDGET 1
    X233 SEC5 1
    X233 FAC2 -0.0551843
    X233 FAC4 -0.180303
    X233 FAC6 -0.264047
    X233 FAC11 0.246449
    X233 FAC14 0.00561363
    X234 OBJ -0.0673495
    X234 BUDGET 1
    X234 SEC6 1
    X234 FAC6 0.238151
    X234 FAC11 -0.11079
    X234 FAC12 -0.136808
    X235 OBJ -0.0853643
    X235 BUDGET 1
    X235 SEC7 1
    X235 FAC4 -0.293734
    X235 FAC5 -0.112247
    X235 FAC7 -0.0999761
    X235 FAC8 0.199382
    X235 FAC13 0.27421
    X236 OBJ -0.140074
    X236 BUDGET 1
    X236 SEC8 1
    X236 FAC1 0.498831
    X236 FAC2 -0.234207
    X236 FAC3 -0.132939
    X236 FAC9 -0.144344
    X236 FAC14 -0.211532
    X237 OBJ -0.0359149
    X237 BUDGET 1
    X237 SEC9 1
    X237 FAC2 0.0734971
    X237 FAC5 0.0736695
    X237 FAC9 0.154742
    X237 FAC11 0.279789
    X237 FAC13 -0.0515745
    X237 FAC14 -0.297995
    X238 OBJ -0.109367
    X238 BUDGET 1
    X238 SEC10 1
    X238 FAC2 0.10178
    X238 FAC6 0.186983
    X238 FAC7 0.883355
    X238 FAC9 0.244726
    X238 FAC12 0.169429
    X238 FAC14 0.307387
    X239 OBJ -0.125889
    X239 BUDGET 1
    X239 SEC11 1
    X239 FAC1 0.155571
    X239 FAC6 -0.0160125
    X239 FAC9 0.0436162
    X240 OBJ -0.0560004
    X240 BUDGET 1
    X240 SEC0 1
    X240 FAC2 -0.0896871
    X240 FAC3 0.0897334
    X240 FAC5 0.593316
    X240 FAC8 0.327444
    X240 FAC9 -0.30522
    X240 FAC10 0.370556
    X241 OBJ -0.0964695
    X241 BUDGET 1
    X241 SEC1 1
    X241 FAC4 -0.486302
    X241 FAC11 0.0608006
    X242 OBJ -0.0891376
    X242 BUDGET 1
    X242 SEC2 1
    X242 FAC0 -0.349446
    X242 FAC5 -0.320274
    X242 FAC7 0.161655
    X242 FAC13 0.269678
    X243 OBJ -0.118113
    X243 BUDGET 1
    X243 SEC3 1
    X243 FAC1 -0.0838358
    X243 FAC2 -0.0937913
    X243 FAC6 0.427256
    X243 FAC7 0.0492795
    X243 FAC13 -0.059103
    X244 OBJ -0.123436
    X244 BUDGET 1
    X244 SEC4 1
    X244 FAC3 0.471863
    X244 FAC11 -0.0380213
    X244 FAC12 0.130898
    X245 OBJ -0.135795
    X245 BUDGET 1
    X245 SEC5 1
    X245 FAC1 -0.665
    X245 FAC4 -0.264457
    X245 FAC7 0.185146
    X245 FAC8 0.225812
    X245 FAC9 -0.186675
    X246 OBJ -0.0226492
    X246 BUDGET 1
    X246 SEC6 1
    X246 FAC2 -0.181623
    X246 FAC4 -0.56126
    X246 FAC8 0.196661
    X246 FAC11 -0.383971
    X246 FAC12 0.117032
    X247 OBJ -0.148231
    X247 BUDGET 1
    X247 SEC7 1
    X247 FAC0 -0.288538
    X247 FAC2 0.249178
    X247 FAC3 0.152144
    X247 FAC6 -0.0560904
    X247 FAC8 0.338033
    X247 FAC10 0.368147
    X248 OBJ -0.0537984
    X248 BUDGET 1
    X248 SEC8 1
    X248 FAC3 0.367861
    X248 FAC5 -0.132918
    X248 FAC6 -0.00178877
    X248 FAC10 0.107422
    X248 FAC12 0.345138
    X249 OBJ -0.131955
    X249 BUDGET 1
    X249 SEC9 1
    X249 FAC0 -0.202873
    X249 FAC4 0.19634
    X249 FAC5 -0.276754
    X249 FAC6 0.0799852
    X250 OBJ -0.0722634
    X250 BUDGET 1
    X250 SEC10 1
    X250 FAC0 0.231803
    X250 FAC3 0.378163
    X250 FAC9 -0.144325
    X250 FAC14 -0.749182
    X251 OBJ -0.103881
    X251 BUDGET 1
    X251 SEC11 1
    X251 FAC1 0.0998359
    X251 FAC3 0.127982
    X251 FAC7 0.413136
    X251 FAC8 -0.0433014
    X252 OBJ -0.0775279
    X252 BUDGET 1
    X252 SEC0 1
    X252 FAC8 0.059478
    X252 FAC12 0.050385
    X252 FAC14 -0.171011
    X253 OBJ -0.135735
    X253 BUDGET 1
    X253 SEC1 1
    X253 FAC5 0.32115
    X253 FAC8 0.0574128
    X253 FAC9 -0.0949258
    X253 FAC11 -0.134167
    X253 FAC12 -0.210483
    X254 OBJ -0.148675
    X254 BUDGET 1
    X254 SEC2 1
    X254 FAC2 -0.490006
    X254 FAC4 0.243892
    X254 FAC5 -0.338889
    X254 FAC8 0.172492
    X254 FAC13 -0.234657
    X255 OBJ -0.0522122
    X255 BUDGET 1
    X255 SEC3 1
    X255 FAC2 0.0660187
    X255 FAC3 -0.275602
    X255 FAC6 0.0818493
    X255 FAC11 0.27985
    X256 OBJ -0.139411
    X256 BUDGET 1
    X256 SEC4 1
    X256 FAC3 -0.398536
    X256 FAC7 0.0692351
    X256 FAC11 -0.420621
    X256 FAC13 -0.0691324
    X257 OBJ -0.0981963
    X257 BUDGET 1
    X257 SEC5 1
    X257 FAC1 0.21897
    X257 FAC3 -0.342998
    X257 FAC9 0.400225
    X257 FAC10 0.304682
    X257 FAC11 -0.188176
    X257 FAC12 -0.198775
    X257 FAC13 0.221066
    X257 FAC14 0.172107
    X258 OBJ -0.0899033
    X258 BUDGET 1
    X258 SEC6 1
    X258 FAC3 0.0910986
    X258 FAC5 -0.497701
    X258 FAC8 -0.122166
    X258 FAC12 0.389029
    X259 OBJ -0.103635
    X259 BUDGET 1
    X259 SEC7 1
    X259 FAC1 0.191603
    X259 FAC4 -0.321476
    X259 FAC5 0.514252
    X259 FAC6 -0.197764
    X259 FAC7 -0.115394
    X259 FAC9 0.103391
    X259 FAC13 -0.317373
    X259 FAC14 -0.26777
    X260 OBJ -0.110631
    X260 BUDGET 1
    X260 SEC8 1
    X260 FAC2 -0.013913
    X260 FAC3 -0.0134269
    X260 FAC7 0.308753
    X261 OBJ -0.0728205
    X261 BUDGET 1
    X261 SEC9 1
    X261 FAC6 0.561452
    X261 FAC7 0.211823
    X261 FAC11 0.2961
    X261 FAC14 0.303787
    X262 OBJ -0.112651
    X262 BUDGET 1
    X262 SEC10 1
    X262 FAC1 0.27406
    X262 FAC3 0.342584
    X262 FAC8 0.118385
    X262 FAC13 0.216464
    X263 OBJ -0.141715
    X263 BUDGET 1
    X263 SEC11 1
    X263 FAC0 0.0467179
    X263 FAC1 0.283926
    X263 FAC5 0.250845
    X263 FAC9 0.0361429
    X264 OBJ -0.0562415
    X264 BUDGET 1
    X264 SEC0 1
    X264 FAC0 -0.31608
    X264 FAC2 -0.0858162
    X264 FAC5 -0.208503
    X264 FAC9 -0.297254
    X264 FAC12 0.626737
    X265 OBJ -0.0281987
    X265 BUDGET 1
    X265 SEC1 1
    X265 FAC1 -0.228564
    X265 FAC4 0.110713
    X265 FAC6 -0.110075
    X265 FAC7 -0.0213036
    X265 FAC8 -0.121848
    X265 FAC9 0.16182
    X265 FAC12 0.0180299
    X265 FAC13 -0.0496249
    X266 OBJ -0.142792
    X266 BUDGET 1
    X266 SEC2 1
    X266 FAC3 0.0786477
    X266 FAC4 0.13865
    X266 FAC6 0.374455
    X266 FAC8 0.225196
    X266 FAC10 -0.0939531
    X266 FAC11 0.0793401
    X266 FAC14 0.0990143
    X267 OBJ -0.0861416
    X267 BUDGET 1
    X267 SEC3 1
    X267 FAC5 -0.629184
    X267 FAC8 0.0752535
    X267 FAC11 -0.43328
    X267 FAC14 0.00676621
    X268 OBJ -0.0428091
    X268 BUDGET 1
    X268 SEC4 1
    X268 FAC0 0.146792
    X268 FAC3 0.131411
    X268 FAC5 0.429303
    X268 FAC7 -0.0662257
    X268 FAC8 -0.289484
    X269 OBJ -0.0870036
    X269 BUDGET 1
    X269 SEC5 1
    X269 FAC0 0.0740171
    X269 FAC7 0.0217244
    X269 FAC11 0.474824
    X270 OBJ -0.123855
    X270 BUDGET 1
    X270 SEC6 1
    X270 FAC3 -0.217116
    X270 FAC4 -0.322392
    X270 FAC6 -0.268494
    X270 FAC7 -0.393896
    X270 FAC12 0.0369342
    X271 OBJ -0.131998
    X271 BUDGET 1
    X271 SEC7 1
    X271 FAC1 -0.0287149
    X271 FAC3 0.00124987
    X271 FAC4 -0.0665203
    X271 FAC8 0.181833
    X271 FAC12 -0.77372
    X271 FAC14 0.132502
    X272 OBJ -0.0914722
    X272 BUDGET 1
    X272 SEC8 1
    X272 FAC1 0.530083
    X272 FAC3 0.157548
    X273 OBJ -0.0633271
    X273 BUDGET 1
    X273 SEC9 1
    X273 FAC10 -0.115732
    X273 FAC13 0.256456
    X273 FAC14 0.579461
    X274 OBJ -0.0840905
    X274 BUDGET 1
    X274 SEC10 1
    X274 FAC6 -0.182874
    X274 FAC7 0.032746
    X274 FAC9 0.306939
    X275 OBJ -0.0596291
    X275 BUDGET 1
    X275 SEC11 1
    X275 FAC7 -0.0373055
    X275 FAC9 -0.0842543
    X276 OBJ -0.0954529
    X276 BUDGET 1
    X276 SEC0 1
    X276 FAC0 -0.0563146
    X276 FAC2 0.0801472
    X276 FAC7 0.0759363
    X276 FAC11 0.493103
    X276 FAC14 0.354235
    X277 OBJ -0.106452
    X277 BUDGET 1
    X277 SEC1 1
    X277 FAC0 -0.491841
    X277 FAC2 0.270088
    X277 FAC5 -0.0293156
    X277 FAC13 0.414323
    X278 OBJ -0.114486
    X278 BUDGET 1
    X278 SEC2 1
    X278 FAC7 0.262515
    X278 FAC8 -0.554395
    X278 FAC10 0.321476
    X278 FAC11 0.432019
    X278 FAC13 0.1032
    X279 OBJ -0.0962722
    X279 BUDGET 1
    X279 SEC3 1
    X279 FAC3 0.353257
    X279 FAC8 0.482845
    X279 FAC10 0.186028
    X279 FAC11 0.703497
    X279 FAC12 -0.0307078
    X280 OBJ -0.140639
    X280 BUDGET 1
    X280 SEC4 1
    X280 FAC0 0.0836446
    X280 FAC1 -0.153258
    X280 FAC5 -0.113452
    X280 FAC6 0.338441
    X280 FAC9 -0.508108
    X280 FAC10 0.202755
    X280 FAC11 -0.377195
    X280 FAC12 0.415382
    X281 OBJ -0.128226
    X281 BUDGET 1
    X281 SEC5 1
    X281 FAC9 0.00388526
    X281 FAC10 -0.375306
    X281 FAC13 0.146045
    X281 FAC14 0.424242
    X282 OBJ -0.119623
    X282 BUDGET 1
    X282 SEC6 1
    X282 FAC1 0.10242
    X282 FAC4 -0.505292
    X282 FAC5 0.359886
    X282 FAC6 -0.501919
    X282 FAC7 -0.00236835
    X282 FAC9 0.131267
    X282 FAC10 0.315208
    X282 FAC13 0.522405
    X283 OBJ -0.122529
    X283 BUDGET 1
    X283 SEC7 1
    X283 FAC4 0.187438
    X283 FAC5 -0.165114
    X283 FAC7 0.111435
    X284 OBJ -0.132126
    X284 BUDGET 1
    X284 SEC8 1
    X284 FAC0 -0.217524
    X284 FAC1 -0.282447
    X284 FAC3 -0.213787
    X284 FAC11 0.322206
    X285 OBJ -0.0574098
    X285 BUDGET 1
    X285 SEC9 1
    X285 FAC7 0.372746
    X285 FAC13 -0.320142
    X286 OBJ -0.0477739
    X286 BUDGET 1
    X286 SEC10 1
    X286 FAC3 0.453494
    X286 FAC6 -0.210158
    X286 FAC14 0.0292086
    X287 OBJ -0.0874504
    X287 BUDGET 1
    X287 SEC11 1
    X287 FAC6 -0.372171
    X287 FAC9 0.149683
    X288 OBJ -0.0269796
    X288 BUDGET 1
    X288 SEC0 1
    X288 FAC0 0.296752
    X288 FAC2 -0.431876
    X288 FAC7 -0.407267
    X288 FAC13 -0.179884
    X289 OBJ -0.0491697
    X289 BUDGET 1
    X289 SEC1 1
    X289 FAC0 0.0788626
    X289 FAC3 -0.00640992
    X289 FAC5 -0.0743731
    X290 OBJ -0.146589
    X290 BUDGET 1
    X290 SEC2 1
    X290 FAC3 -0.17466
    X290 FAC5 -0.026687
    X290 FAC11 0.0402907
    X290 FAC13 0.0468551
    X291 OBJ -0.126006
    X291 BUDGET 1
    X291 SEC3 1
    X291 FAC3 0.274486
    X291 FAC5 0.285479
    X291 FAC8 0.0834673
    X291 FAC13 -0.0279361
    X292 OBJ -0.0536682
    X292 BUDGET 1
    X292 SEC4 1
    X292 FAC6 0.208585
    X292 FAC10 0.102408
    X292 FAC11 -0.255181
    X293 OBJ -0.115115
    X293 BUDGET 1
    X293 SEC5 1
    X293 FAC0 -0.00129959
    X293 FAC1 0.169616
    X293 FAC2 0.236978
    X293 FAC5 0.0223916
    X293 FAC9 -0.713772
    X293 FAC10 0.234081
    X293 FAC13 0.580695
    X293 FAC14 -0.27208
    X294 OBJ -0.0601646
    X294 BUDGET 1
    X294 SEC6 1
    X294 FAC0 -0.193247
    X294 FAC1 0.140981
    X294 FAC2 0.101693
    X294 FAC3 -0.112151
    X294 FAC4 0.287429
    X295 OBJ -0.135121
    X295 BUDGET 1
    X295 SEC7 1
    X295 FAC1 0.154111
    X295 FAC4 0.0676114
    X295 FAC10 0.210716
    X295 FAC14 0.0210893
    X296 OBJ -0.0353046
    X296 BUDGET 1
    X296 SEC8 1
    X296 FAC0 0.0844109
    X296 FAC2 -0.037485
    X296 FAC5 0.12971
    X296 FAC6 -0.0316229
    X296 FAC14 0.336685
    X297 OBJ -0.142359
    X297 BUDGET 1
    X297 SEC9 1
    X297 FAC0 -0.300984
    X297 FAC3 0.421045
    X297 FAC5 -0.100646
    X297 FAC10 0.470205
    X298 OBJ -0.0591499
    X298 BUDGET 1
    X298 SEC10 1
    X298 FAC1 0.12158
    X298 FAC8 -0.00821667
    X298 FAC12 -0.286156
    X299 OBJ -0.0237987
    X299 BUDGET 1
    X299 SEC11 1
    X299 FAC1 0.148367
    X299 FAC2 -0.635893
    X299 FAC4 -0.736839
    X299 FAC5 -0.355073
    X299 FAC7 0.26585
    X299 FAC10 0.0898272
    X299 FAC12 -0.0500175
    X300 OBJ -0.0254946
    X300 BUDGET 1
    X300 SEC0 1
    X300 FAC3 0.538345
    X300 FAC4 0.0414749
    X300 FAC7 -0.0225698
    X300 FAC14 -0.332157
    X301 OBJ -0.0627039
    X301 BUDGET 1
    X301 SEC1 1
    X301 FAC1 0.0693551
    X301 FAC10 -0.0391803
    X301 FAC14 0.311791
    X302 OBJ -0.147131
    X302 BUDGET 1
    X302 SEC2 1
    X302 FAC0 -0.464512
    X302 FAC1 -0.377172
    X302 FAC14 -0.298793
    X303 OBJ -0.0747725
    X303 BUDGET 1
    X303 SEC3 1
    X303 FAC7 -0.47697
    X303 FAC12 -0.050929
    X303 FAC13 -0.497932
    X303 FAC14 0.505467
    X304 OBJ -0.0620985
    X304 BUDGET 1
    X304 SEC4 1
    X304 FAC0 -0.445905
    X304 FAC1 0.356508
    X304 FAC2 0.17128
    X304 FAC5 0.507384
    X304 FAC9 0.724106
    X304 FAC12 0.48379
    X304 FAC13 0.0128853
    X305 OBJ -0.0815534
    X305 BUDGET 1
    X305 SEC5 1
    X305 FAC3 0.112366
    X305 FAC6 -0.437691
    X305 FAC7 0.21044
    X305 FAC8 0.215092
    X305 FAC12 -0.326924
    X306 OBJ -0.143732
    X306 BUDGET 1
    X306 SEC6 1
    X306 FAC2 0.354546
    X306 FAC5 -0.223669
    X306 FAC6 0.170694
    X306 FAC11 0.0681801
    X306 FAC13 -0.0352211
    X306 FAC14 0.171154
    X307 OBJ -0.138059
    X307 BUDGET 1
    X307 SEC7 1
    X307 FAC0 -0.0564802
    X307 FAC1 -0.149091
    X307 FAC12 -0.36269
    X308 OBJ -0.0375699
    X308 BUDGET 1
    X308 SEC8 1
    X308 FAC5 0.0508779
    X308 FAC6 0.234085
    X308 FAC8 -0.388785
    X308 FAC11 0.0128456
    X309 OBJ -0.0578534
    X309 BUDGET 1
    X309 SEC9 1
    X309 FAC0 -0.206481
    X309 FAC7 -0.172761
    X309 FAC8 -0.0496192
    X309 FAC13 -0.498653
    X310 OBJ -0.147648
    X310 BUDGET 1
    X310 SEC10 1
    X310 FAC0 0.057535
    X310 FAC2 0.161132
    X310 FAC4 0.231005
    X310 FAC5 -0.171475
    X310 FAC9 -0.51527
    X310 FAC10 -0.74221
    X310 FAC11 -0.449984
    X310 FAC14 0.637985
    X311 OBJ -0.0413989
    X311 BUDGET 1
    X311 SEC11 1
    X311 FAC3 -0.271308
    X311 FAC5 -0.102454
    X311 FAC12 -0.198294
    X311 FAC14 0.0690742
    X312 OBJ -0.121648
    X312 BUDGET 1
    X312 SEC0 1
    X312 FAC0 -0.151739
    X312 FAC1 -0.272071
    X312 FAC2 0.369153
    X312 FAC6 0.142354
    X312 FAC7 0.221232
    X312 FAC8 0.127866
    X312 FAC14 -0.0898739
    X313 OBJ -0.141335
    X313 BUDGET 1
    X313 SEC1 1
    X313 FAC6 0.00459193
    X313 FAC11 -0.135761
    X314 OBJ -0.0612512
    X314 BUDGET 1
    X314 SEC2 1
    X314 FAC0 -0.0335341
    X314 FAC3 0.459945
    X315 OBJ -0.118811
    X315 BUDGET 1
    X315 SEC3 1
    X315 FAC2 -0.404219
    X315 FAC4 0.356542
    X315 FAC5 -0.0827151
    X315 FAC12 0.0189173
    X315 FAC14 -0.288411
    X316 OBJ -0.124872
    X316 BUDGET 1
    X316 SEC4 1
    X316 FAC2 -0.343154
    X316 FAC3 -0.0428333
    X316 FAC4 -0.519435
    X316 FAC7 0.635256
    X316 FAC11 0.110791
    X317 OBJ -0.115137
    X317 BUDGET 1
    X317 SEC5 1
    X317 FAC10 -0.379219
    X317 FAC13 0.285631
    X318 OBJ -0.12704
    X318 BUDGET 1
    X318 SEC6 1
    X318 FAC3 -0.0855193
    X318 FAC6 -0.0835519
    X318 FAC8 -0.481335
    X319 OBJ -0.114472
    X319 BUDGET 1
    X319 SEC7 1
    X319 FAC1 0.310157
    X319 FAC2 0.0880376
    X319 FAC7 -0.128544
    X319 FAC8 -0.237318
    X319 FAC9 -0.0351429
    X320 OBJ -0.115526
    X320 BUDGET 1
    X320 SEC8 1
    X320 FAC4 -0.32544
    X320 FAC6 -0.083755
    X320 FAC12 0.0649492
    X320 FAC14 -0.48643
    X321 OBJ -0.0659277
    X321 BUDGET 1
    X321 SEC9 1
    X321 FAC2 -0.15154
    X321 FAC6 0.22649
    X321 FAC10 0.469947
    X321 FAC13 0.129883
    X322 OBJ -0.0895334
    X322 BUDGET 1
    X322 SEC10 1
    X322 FAC1 -0.715956
    X322 FAC2 -0.115924
    X322 FAC9 -0.0249282
    X322 FAC12 0.0521413
    X323 OBJ -0.112092
    X323 BUDGET 1
    X323 SEC11 1
    X323 FAC1 -0.101303
    X323 FAC4 0.0556019
    X323 FAC5 -0.537914
    X323 FAC11 0.00763776
    X324 OBJ -0.12958
    X324 BUDGET 1
    X324 SEC0 1
    X324 FAC3 -0.0423302
    X324 FAC6 0.0518917
    X324 FAC9 0.341007
    X324 FAC11 -0.21169
    X324 FAC12 0.0365547
    X324 FAC13 0.155293
    X325 OBJ -0.134608
    X325 BUDGET 1
    X325 SEC1 1
    X325 FAC0 -0.502348
    X325 FAC3 -0.0163853
    X325 FAC5 0.717225
    X325 FAC6 0.442414
    X325 FAC7 0.048905
    X325 FAC8 0.13458
    X325 FAC14 0.38068
    X326 OBJ -0.123528
    X326 BUDGET 1
    X326 SEC2 1
    X326 FAC0 -0.268273
    X326 FAC1 0.229785
    X326 FAC3 0.236155
    X326 FAC7 0.385727
    X326 FAC13 0.326781
    X327 OBJ -0.136542
    X327 BUDGET 1
    X327 SEC3 1
    X327 FAC3 0.335292
    X327 FAC4 0.35914
    X327 FAC12 0.487666
    X327 FAC13 -0.712528
    X328 OBJ -0.11683
    X328 BUDGET 1
    X328 SEC4 1
    X328 FAC3 -0.0738286
    X328 FAC5 -0.0354954
    X328 FAC8 -0.19174
    X328 FAC13 0.243543
    X329 OBJ -0.0524448
    X329 BUDGET 1
    X329 SEC5 1
    X329 FAC3 0.12479
    X329 FAC5 -0.392063
    X330 OBJ -0.0384006
    X330 BUDGET 1
    X330 SEC6 1
    X330 FAC0 -0.218281
    X330 FAC3 0.39189
    X330 FAC6 0.149625
    X330 FAC7 -0.234193
    X330 FAC11 0.126769
    X331 OBJ -0.0357079
    X331 BUDGET 1
    X331 SEC7 1
    X331 FAC0 -0.0723049
    X331 FAC1 -0.309278
    X331 FAC3 0.471662
    X331 FAC5 0.00839919
    X332 OBJ -0.117579
    X332 BUDGET 1
    X332 SEC8 1
    X332 FAC0 -0.016499
    X332 FAC4 0.14412
    X333 OBJ -0.130273
    X333 BUDGET 1
    X333 SEC9 1
    X333 FAC4 -0.0624682
    X333 FAC5 0.0578515
    X333 FAC6 -0.14263
    X333 FAC10 0.0981389
    X333 FAC12 0.552237
    X334 OBJ -0.039313
    X334 BUDGET 1
    X334 SEC10 1
    X334 FAC3 0.0318549
    X334 FAC4 -0.356571
    X334 FAC14 -0.527989
    X335 OBJ -0.0345439
    X335 BUDGET 1
    X335 SEC11 1
    X335 FAC0 0.065029
    X335 FAC2 -0.347493
    X335 FAC3 -0.043836
    X335 FAC4 0.150113
    X335 FAC5 -0.137146
    X335 FAC6 -0.0104091
    X335 FAC10 -0.265396
    X335 FAC14 -0.0676049
    X336 OBJ -0.0466925
    X336 BUDGET 1
    X336 SEC0 1
    X336 FAC2 -0.641044
    X336 FAC5 0.175739
    X336 FAC10 -0.377425
    X336 FAC11 -0.313796
    X336 FAC13 0.511618
    X337 OBJ -0.0650131
    X337 BUDGET 1
    X337 SEC1 1
    X337 FAC0 -0.353525
    X337 FAC4 0.42749
    X337 FAC7 0.101519
    X337 FAC9 -0.0932851
    X337 FAC10 0.0749333
    X338 OBJ -0.0895097
    X338 BUDGET 1
    X338 SEC2 1
    X338 FAC0 -0.42238
    X338 FAC1 -0.0724334
    X338 FAC5 -0.0957893
    X338 FAC6 0.309184
    X338 FAC7 0.200529
    X338 FAC8 0.372327
    X338 FAC9 0.163825
    X338 FAC11 0.31204
    X339 OBJ -0.0902307
    X339 BUDGET 1
    X339 SEC3 1
    X339 FAC9 0.195969
    X339 FAC12 -0.0416515
    X340 OBJ -0.111868
    X340 BUDGET 1
    X340 SEC4 1
    X340 FAC4 0.207973
    X340 FAC10 0.363441
    X340 FAC12 -0.0689915
    X340 FAC14 -0.153566
    X341 OBJ -0.0850112
    X341 BUDGET 1
    X341 SEC5 1
    X341 FAC2 -0.286474
    X341 FAC3 0.740256
    X341 FAC4 0.289896
    X341 FAC10 -0.137031
    X342 OBJ -0.0948258
    X342 BUDGET 1
    X342 SEC6 1
    X342 FAC5 -0.150923
    X342 FAC9 0.00908048
    X342 FAC11 0.290104
    X342 FAC14 -0.167324
    X343 OBJ -0.0833019
    X343 BUDGET 1
    X343 SEC7 1
    X343 FAC1 0.131674
    X343 FAC2 -0.0336496
    X343 FAC7 0.113712
    X343 FAC14 -0.205357
    X344 OBJ -0.0413232
    X344 BUDGET 1
    X344 SEC8 1
    X344 FAC3 -0.28518
    X344 FAC6 0.0571517
    X344 FAC13 -0.674932
    X345 OBJ -0.051219
    X345 BUDGET 1
    X345 SEC9 1
    X345 FAC0 0.395393
    X345 FAC3 0.0303034
    X345 FAC11 0.25088
    X345 FAC12 -0.211305
    X346 OBJ -0.0858012
    X346 BUDGET 1
    X346 SEC10 1
    X346 FAC3 0.348665
    X346 FAC5 -0.0982073
    X346 FAC6 -0.0458647
    X346 FAC8 0.00442596
    X346 FAC12 -0.15479
    X346 FAC13 0.150057
    X346 FAC14 -0.264217
    X347 OBJ -0.0661239
    X347 BUDGET 1
    X347 SEC11 1
    X347 FAC1 -0.13697
    X347 FAC4 0.28589
    X347 FAC8 0.156827
    X347 FAC9 -0.221999
    X347 FAC14 -0.0758278
    X348 OBJ -0.119082
    X348 BUDGET 1
    X348 SEC0 1
    X348 FAC3 -0.0336172
    X348 FAC7 -0.154497
    X348 FAC8 -0.230508
    X348 FAC9 0.0399085
    X348 FAC11 -0.170179
    X348 FAC14 0.61621
    X349 OBJ -0.0997894
    X349 BUDGET 1
    X349 SEC1 1
    X349 FAC2 -0.0747775
    X349 FAC3 -0.430076
    X349 FAC4 0.00293131
    X349 FAC9 -0.535201
    X350 OBJ -0.103012
    X350 BUDGET 1
    X350 SEC2 1
    X350 FAC0 0.229812
    X350 FAC3 0.130212
    X350 FAC10 0.0134758
    X350 FAC12 -0.358106
    X351 OBJ -0.0529733
    X351 BUDGET 1
    X351 SEC3 1
    X351 FAC3 -0.382244
    X351 FAC4 -0.183396
    X351 FAC10 0.3488
    X351 FAC13 -0.395668
    X351 FAC14 0.00311942
    X352 OBJ -0.0944594
    X352 BUDGET 1
    X352 SEC4 1
    X352 FAC5 -0.0757846
    X352 FAC9 0.120764
    X353 OBJ -0.0239836
    X353 BUDGET 1
    X353 SEC5 1
    X353 FAC4 -0.158378
    X353 FAC8 -0.461591
    X353 FAC10 -0.45836
    X354 OBJ -0.0313848
    X354 BUDGET 1
    X354 SEC6 1
    X354 FAC3 -0.311303
    X354 FAC4 0.350114
    X354 FAC5 0.69668
    X354 FAC8 0.261951
    X354 FAC10 0.0839969
    X354 FAC12 -0.148464
    X355 OBJ -0.119851
    X355 BUDGET 1
    X355 SEC7 1
    X355 FAC0 -0.255073
    X355 FAC3 0.27543
    X355 FAC5 -0.37159
    X355 FAC12 0.0373672
    X356 OBJ -0.0405204
    X356 BUDGET 1
    X356 SEC8 1
    X356 FAC2 0.107737
    X356 FAC3 -0.793264
    X356 FAC6 0.603197
    X356 FAC8 -0.0523053
    X356 FAC14 0.0529215
    X357 OBJ -0.130706
    X357 BUDGET 1
    X357 SEC9 1
    X357 FAC6 0.148454
    X357 FAC8 -0.654945
    X357 FAC10 0.017511
    X357 FAC12 -0.146759
    X358 OBJ -0.128451
    X358 BUDGET 1
    X358 SEC10 1
    X358 FAC3 0.409865
    X358 FAC6 -0.323915
    X358 FAC10 0.321505
    X359 OBJ -0.0489894
    X359 BUDGET 1
    X359 SEC11 1
    X359 FAC5 0.140246
    X359 FAC7 0.0127726
    X359 FAC12 -0.0896822
    X360 OBJ -0.143638
    X360 BUDGET 1
    X360 SEC0 1
    X360 FAC8 0.0411875
    X360 FAC12 -0.570379
    X361 OBJ -0.0453546
    X361 BUDGET 1
    X361 SEC1 1
    X361 FAC1 -0.294404
    X361 FAC4 -0.0484149
    X361 FAC14 0.78787
    X362 OBJ -0.0623058
    X362 BUDGET 1
    X362 SEC2 1
    X362 FAC2 -0.104669
    X362 FAC3 0.00402055
    X362 FAC5 -0.268933
    X362 FAC13 0.0873887
    X363 OBJ -0.0383445
    X363 BUDGET 1
    X363 SEC3 1
    X363 FAC0 0.536666
    X363 FAC2 0.0225626
    X363 FAC4 -0.0681715
    X363 FAC6 0.0606234
    X363 FAC7 0.443499
    X363 FAC12 -0.238288
    X363 FAC14 -0.254529
    X364 OBJ -0.113778
    X364 BUDGET 1
    X364 SEC4 1
    X364 FAC0 -0.279954
    X364 FAC8 0.14946
    X364 FAC10 0.270427
    X365 OBJ -0.0311654
    X365 BUDGET 1
    X365 SEC5 1
    X365 FAC0 -0.11558
    X365 FAC1 -0.152336
    X365 FAC5 -0.00509414
    X365 FAC6 -0.190628
    X365 FAC9 -0.166604
    X365 FAC14 0.418214
    X366 OBJ -0.142991
    X366 BUDGET 1
    X366 SEC6 1
    X366 FAC2 -0.0900533
    X366 FAC6 0.592714
    X366 FAC7 -0.315982
    X366 FAC14 -0.330529
    X367 OBJ -0.14687
    X367 BUDGET 1
    X367 SEC7 1
    X367 FAC5 0.229581
    X367 FAC6 0.0715526
    X367 FAC10 0.21397
    X367 FAC12 0.112049
    X368 OBJ -0.0304021
    X368 BUDGET 1
    X368 SEC8 1
    X368 FAC3 -0.101154
    X368 FAC5 -0.23534
    X368 FAC7 -0.409558
    X368 FAC9 -0.23242
    X369 OBJ -0.0256327
    X369 BUDGET 1
    X369 SEC9 1
    X369 FAC3 -0.269329
    X369 FAC8 -0.644987
    X369 FAC9 0.0164176
    X369 FAC11 0.178022
    X369 FAC12 -0.224326
    X370 OBJ -0.0878763
    X370 BUDGET 1
    X370 SEC10 1
    X370 FAC0 -0.374836
    X370 FAC4 -0.173832
    X370 FAC5 0.293403
    X370 FAC7 0.184293
    X370 FAC9 0.102674
    X370 FAC14 0.123436
    X371 OBJ -0.127278
    X371 BUDGET 1
    X371 SEC11 1
    X371 FAC2 0.275482
    X372 OBJ -0.133583
    X372 BUDGET 1
    X372 SEC0 1
    X372 FAC0 -0.334214
    X372 FAC1 -0.0281903
    X372 FAC3 -0.158101
    X372 FAC4 0.144537
    X373 OBJ -0.0344988
    X373 BUDGET 1
    X373 SEC1 1
    X373 FAC5 -0.31235
    X373 FAC8 -0.204732
    X373 FAC13 0.184577
    X374 OBJ -0.0592806
    X374 BUDGET 1
    X374 SEC2 1
    X374 FAC3 -0.30965
    X374 FAC9 -0.240413
    X374 FAC12 0.0579752
    X374 FAC13 -0.0478055
    X375 OBJ -0.0254586
    X375 BUDGET 1
    X375 SEC3 1
    X375 FAC0 -0.166119
    X375 FAC2 0.225594
    X375 FAC4 -0.609964
    X375 FAC6 0.43004
    X375 FAC7 0.0542216
    X375 FAC14 -0.18445
    X376 OBJ -0.0281313
    X376 BUDGET 1
    X376 SEC4 1
    X376 FAC1 -0.430057
    X376 FAC7 0.213684
    X376 FAC11 0.197439
    X376 FAC13 0.225187
    X377 OBJ -0.143764
    X377 BUDGET 1
    X377 SEC5 1
    X377 FAC0 -0.538372
    X377 FAC2 -0.496109
    X377 FAC3 -0.110718
    X377 FAC5 -0.200891
    X377 FAC6 -0.198202
    X377 FAC13 -0.552739
    X378 OBJ -0.0420911
    X378 BUDGET 1
    X378 SEC6 1
    X378 FAC1 0.315947
    X378 FAC2 0.200307
    X378 FAC6 0.174588
    X378 FAC10 0.101835
    X378 FAC13 0.288801
    X379 OBJ -0.0220754
    X379 BUDGET 1
    X379 SEC7 1
    X379 FAC7 0.232114
    X379 FAC9 0.0149229
    X379 FAC10 -0.0734411
    X379 FAC14 -0.632442
    X380 OBJ -0.0211339
    X380 BUDGET 1
    X380 SEC8 1
    X380 FAC2 0.348266
    X380 FAC4 0.0415801
    X380 FAC7 -0.260981
    X380 FAC12 0.566156
    X380 FAC14 -0.14629
    X381 OBJ -0.137247
    X381 BUDGET 1
    X381 SEC9 1
    X381 FAC9 0.432959
    X381 FAC10 -0.324959
    X382 OBJ -0.020953
    X382 BUDGET 1
    X382 SEC10 1
    X382 FAC2 0.48089
    X382 FAC4 0.0175488
    X382 FAC5 -0.559013
    X382 FAC9 -0.262895
    X382 FAC14 0.120622
    X383 OBJ -0.0543975
    X383 BUDGET 1
    X383 SEC11 1
    X383 FAC0 -0.101915
    X383 FAC3 0.203284
    X383 FAC7 -0.26237
    X383 FAC11 0.457947
    X384 OBJ -0.0512971
    X384 BUDGET 1
    X384 SEC0 1
    X384 FAC1 -0.315063
    X384 FAC2 -0.0910609
    X384 FAC4 0.00238665
    X384 FAC11 0.533813
    X385 OBJ -0.104749
    X385 BUDGET 1
    X385 SEC1 1
    X385 FAC2 -0.479646
    X385 FAC5 0.0292409
    X385 FAC10 0.235189
    X386 OBJ -0.135743
    X386 BUDGET 1
    X386 SEC2 1
    X386 FAC0 -0.0321308
    X386 FAC1 -0.058693
    X386 FAC4 -0.134318
    X386 FAC11 -0.000783554
    X386 FAC12 -0.354451
    X386 FAC13 0.447374
    X386 FAC14 -0.0768588
    X387 OBJ -0.0629348
    X387 BUDGET 1
    X387 SEC3 1
    X387 FAC0 -0.100688
    X387 FAC3 -0.0972547
    X387 FAC7 -0.0526752
    X387 FAC8 0.111857
    X387 FAC10 -0.432994
    X387 FAC11 0.255069
    X387 FAC12 0.102194
    X388 OBJ -0.0819547
    X388 BUDGET 1
    X388 SEC4 1
    X388 FAC0 0.134036
    X388 FAC5 -0.393588
    X388 FAC11 0.342198
    X388 FAC13 -0.363721
    X389 OBJ -0.0471901
    X389 BUDGET 1
    X389 SEC5 1
    X389 FAC10 -0.0112536
    X389 FAC11 0.10912
    X389 FAC13 -0.258433
    X390 OBJ -0.068254
    X390 BUDGET 1
    X390 SEC6 1
    X390 FAC2 0.521427
    X390 FAC7 0.549626
    X391 OBJ -0.042853
    X391 BUDGET 1
    X391 SEC7 1
    X391 FAC1 -0.0835325
    X391 FAC2 -0.260545
    X391 FAC4 0.176658
    X391 FAC5 0.253154
    X391 FAC8 -0.264849
    X391 FAC10 0.427035
    X391 FAC11 0.0557839
    X392 OBJ -0.0568267
    X392 BUDGET 1
    X392 SEC8 1
    X392 FAC2 0.159292
    X392 FAC4 -0.489412
    X392 FAC7 0.0894132
    X392 FAC8 -0.368342
    X392 FAC9 -0.0928105
    X392 FAC10 -0.309629
    X392 FAC12 -0.599155
    X392 FAC14 -0.186646
    X393 OBJ -0.0328209
    X393 BUDGET 1
    X393 SEC9 1
    X393 FAC4 -0.22711
    X393 FAC5 0.0597692
    X393 FAC7 0.351765
    X393 FAC8 -0.140059
    X393 FAC10 -0.568148
    X393 FAC12 0.226204
    X394 OBJ -0.045647
    X394 BUDGET 1
    X394 SEC10 1
    X394 FAC0 -0.0483847
    X394 FAC3 -0.33766
    X394 FAC12 0.543817
    X395 OBJ -0.071242
    X395 BUDGET 1
    X395 SEC11 1
    X395 FAC0 0.18863
    X395 FAC4 -0.460278
    X395 FAC9 -0.39885
    X395 FAC12 0.100381
    X396 OBJ -0.106221
    X396 BUDGET 1
    X396 SEC0 1
    X396 FAC3 -0.395457
    X396 FAC5 0.00927916
    X396 FAC6 0.13389
    X396 FAC8 0.463993
    X396 FAC13 -0.0076476
    X397 OBJ -0.0296331
    X397 BUDGET 1
    X397 SEC1 1
    X397 FAC3 0.0483939
    X397 FAC6 -0.553707
    X397 FAC8 0.443119
    X397 FAC9 -0.0594003
    X398 OBJ -0.0200194
    X398 BUDGET 1
    X398 SEC2 1
    X398 FAC1 -0.306869
    X398 FAC2 -0.053354
    X398 FAC3 0.137954
    X398 FAC6 -0.346505
    X398 FAC8 -0.288371
    X398 FAC12 -0.0501958
    X399 OBJ -0.0345666
    X399 BUDGET 1
    X399 SEC3 1
    X399 FAC5 -0.107029
    X399 FAC10 0.775632
    X400 OBJ -0.0695617
    X400 BUDGET 1
    X400 SEC4 1
    X400 FAC1 -0.422177
    X400 FAC3 -0.065745
    X400 FAC6 -0.174119
    X400 FAC8 -0.696644
    X400 FAC14 0.224455
    X401 OBJ -0.104263
    X401 BUDGET 1
    X401 SEC5 1
    X401 FAC1 -0.316188
    X401 FAC4 -0.182508
    X401 FAC7 -0.323963
    X401 FAC12 0.69142
    X401 FAC13 0.0343948
    X402 OBJ -0.133809
    X402 BUDGET 1
    X402 SEC6 1
    X402 FAC5 -0.182032
    X402 FAC9 0.178346
    X403 OBJ -0.14425
    X403 BUDGET 1
    X403 SEC7 1
    X403 FAC2 0.206705
    X403 FAC10 0.104203
    X403 FAC11 -0.027373
    X403 FAC14 0.0968733
    X404 OBJ -0.0496809
    X404 BUDGET 1
    X404 SEC8 1
    X404 FAC0 -0.0418738
    X404 FAC3 0.0863765
    X404 FAC6 0.386735
    X405 OBJ -0.0849229
    X405 BUDGET 1
    X405 SEC9 1
    X405 FAC1 -0.00764165
    X405 FAC8 -0.0478217
    X405 FAC11 -0.0633115
    X405 FAC12 0.0618405
    X406 OBJ -0.0546476
    X406 BUDGET 1
    X406 SEC10 1
    X406 FAC3 -0.0195673
    X406 FAC5 -0.257604
    X406 FAC10 0.209317
    X406 FAC11 -0.0223108
    X406 FAC12 0.0366824
    X406 FAC13 0.390753
    X406 FAC14 -0.626819
    X407 OBJ -0.081405
    X407 BUDGET 1
    X407 SEC11 1
    X407 FAC2 -0.275934
    X407 FAC3 -0.152049
    X407 FAC11 -0.393661
    X407 FAC13 0.00575956
    X408 OBJ -0.144696
    X408 BUDGET 1
    X408 SEC0 1
    X408 FAC5 0.31878
    X408 FAC7 -0.618754
    X408 FAC13 0.323557
    X408 FAC14 0.01435
    X409 OBJ -0.0926774
    X409 BUDGET 1
    X409 SEC1 1
    X409 FAC0 0.328439
    X409 FAC1 -0.296547
    X409 FAC10 0.292255
    X409 FAC12 -0.455555
    X410 OBJ -0.113476
    X410 BUDGET 1
    X410 SEC2 1
    X410 FAC3 -0.0225573
    X410 FAC6 0.264554
    X410 FAC8 -0.255665
    X410 FAC9 0.324641
    X410 FAC13 0.349567
    X410 FAC14 -0.378951
    X411 OBJ -0.0495829
    X411 BUDGET 1
    X411 SEC3 1
    X411 FAC1 -0.0438158
    X411 FAC2 -0.607466
    X411 FAC3 0.146163
    X411 FAC12 -0.115531
    X412 OBJ -0.118187
    X412 BUDGET 1
    X412 SEC4 1
    X412 FAC3 0.236556
    X413 OBJ -0.129019
    X413 BUDGET 1
    X413 SEC5 1
    X413 FAC0 0.0673636
    X413 FAC2 -0.291858
    X413 FAC7 0.293906
    X413 FAC8 -0.257232
    X413 FAC12 -0.00594277
    X413 FAC14 -0.272056
    X414 OBJ -0.0551923
    X414 BUDGET 1
    X414 SEC6 1
    X414 FAC5 0.19092
    X414 FAC10 0.287372
    X414 FAC12 -0.147866
    X415 OBJ -0.0499005
    X415 BUDGET 1
    X415 SEC7 1
    X415 FAC2 0.290634
    X415 FAC3 -0.222427
    X415 FAC4 0.101865
    X415 FAC9 -0.0288289
    X415 FAC11 -0.181447
    X415 FAC14 -0.144326
    X416 OBJ -0.0373987
    X416 BUDGET 1
    X416 SEC8 1
    X416 FAC7 -0.0239527
    X416 FAC11 -0.325264
    X416 FAC14 -0.558575
    X417 OBJ -0.0229737
    X417 BUDGET 1
    X417 SEC9 1
    X417 FAC3 0.11495
    X417 FAC10 1.06778
    X418 OBJ -0.147726
    X418 BUDGET 1
    X418 SEC10 1
    X418 FAC13 0.27709
    X418 FAC14 0.0472469
    X419 OBJ -0.0599697
    X419 BUDGET 1
    X419 SEC11 1
    X419 FAC1 0.334209
    X419 FAC5 -0.404872
    X420 OBJ -0.063524
    X420 BUDGET 1
    X420 SEC0 1
    X420 FAC11 0.661172
    X420 FAC12 0.19371
    X421 OBJ -0.113982
    X421 BUDGET 1
    X421 SEC1 1
    X421 FAC3 -0.375767
    X421 FAC5 0.486149
    X422 OBJ -0.120266
    X422 BUDGET 1
    X422 SEC2 1
    X422 FAC11 -0.63748
    X423 OBJ -0.0701724
    X423 BUDGET 1
    X423 SEC3 1
    X423 FAC10 -0.0191523
    X424 OBJ -0.119403
    X424 BUDGET 1
    X424 SEC4 1
    X424 FAC3 0.00256566
    X424 FAC7 -0.586483
    X424 FAC8 0.244926
    X424 FAC9 -0.306798
    X424 FAC12 0.0177184
    X425 OBJ -0.0241167
    X425 BUDGET 1
    X425 SEC5 1
    X425 FAC6 0.283275
    X425 FAC13 0.220763
    X426 OBJ -0.0371372
    X426 BUDGET 1
    X426 SEC6 1
    X426 FAC2 0.216563
    X426 FAC3 -0.18569
    X426 FAC6 -0.147052
    X426 FAC7 0.299473
    X426 FAC10 -0.306963
    X426 FAC11 0.42212
    X426 FAC12 0.231086
    X426 FAC13 0.0539435
    X427 OBJ -0.0408562
    X427 BUDGET 1
    X427 SEC7 1
    X427 FAC1 0.0963765
    X427 FAC2 0.367253
    X428 OBJ -0.064797
    X428 BUDGET 1
    X428 SEC8 1
    X428 FAC2 -0.49312
    X428 FAC5 0.242797
    X428 FAC8 -0.0345195
    X428 FAC10 0.273461
    X428 FAC11 0.359256
    X428 FAC12 0.0876315
    X429 OBJ -0.0712089
    X429 BUDGET 1
    X429 SEC9 1
    X429 FAC1 -0.2529
    X429 FAC4 0.155807
    X429 FAC8 -0.121883
    X429 FAC14 0.00229185
    X430 OBJ -0.141793
    X430 BUDGET 1
    X430 SEC10 1
    X430 FAC3 -0.404867
    X430 FAC6 -0.37078
    X431 OBJ -0.126322
    X431 BUDGET 1
    X431 SEC11 1
    X431 FAC2 -0.266076
    X431 FAC6 -0.124662
    X431 FAC7 0.30238
    X431 FAC14 0.0895854
    X432 OBJ -0.0485346
    X432 BUDGET 1
    X432 SEC0 1
    X432 FAC0 -0.155452
    X432 FAC1 -0.171029
    X432 FAC4 -0.332594
    X432 FAC6 -0.0860443
    X432 FAC7 -0.0556912
    X432 FAC9 0.174642
    X432 FAC13 -0.0407384
    X433 OBJ -0.104495
    X433 BUDGET 1
    X433 SEC1 1
    X433 FAC3 0.120589
    X433 FAC10 0.642757
    X433 FAC11 -0.0469143
    X434 OBJ -0.109827
    X434 BUDGET 1
    X434 SEC2 1
    X434 FAC1 -0.158321
    X434 FAC3 -0.29724
    X434 FAC5 0.0996408
    X434 FAC6 -0.0955684
    X434 FAC9 0.0700954
    X435 OBJ -0.0689049
    X435 BUDGET 1
    X435 SEC3 1
    X435 FAC3 0.192738
    X435 FAC4 0.470137
    X435 FAC5 -0.342783
    X435 FAC6 -0.154613
    X435 FAC12 0.367169
    X436 OBJ -0.0230426
    X436 BUDGET 1
    X436 SEC4 1
    X436 FAC7 -0.182609
    X436 FAC10 -0.210584
    X436 FAC13 -0.374454
    X437 OBJ -0.14221
    X437 BUDGET 1
    X437 SEC5 1
    X437 FAC8 -0.079913
    X437 FAC9 -0.427737
    X438 OBJ -0.0780623
    X438 BUDGET 1
    X438 SEC6 1
    X438 FAC4 -0.074756
    X438 FAC5 0.053125
    X438 FAC7 -0.0100483
    X438 FAC8 0.456842
    X439 OBJ -0.141986
    X439 BUDGET 1
    X439 SEC7 1
    X439 FAC1 0.325677
    X439 FAC3 -0.336195
    X439 FAC5 0.135231
    X439 FAC7 -0.0219194
    X439 FAC9 0.292438
    X439 FAC10 0.316427
    X439 FAC14 0.564399
    X440 OBJ -0.0516842
    X440 BUDGET 1
    X440 SEC8 1
    X440 FAC2 -0.0828297
    X440 FAC6 -0.452373
    X440 FAC8 -0.357174
    X440 FAC10 -0.491728
    X440 FAC12 -0.275435
    X440 FAC14 0.150564
    X441 OBJ -0.0857664
    X441 BUDGET 1
    X441 SEC9 1
    X441 FAC3 -0.331415
    X441 FAC4 0.0741157
    X441 FAC6 0.140148
    X441 FAC7 -0.306431
    X441 FAC10 0.00807083
    X442 OBJ -0.043501
    X442 BUDGET 1
    X442 SEC10 1
    X442 FAC2 0.241584
    X442 FAC4 -0.337375
    X442 FAC9 0.213587
    X442 FAC13 0.151637
    X443 OBJ -0.093272
    X443 BUDGET 1
    X443 SEC11 1
    X443 FAC2 0.201523
    X443 FAC3 0.505246
    X444 OBJ -0.136858
    X444 BUDGET 1
    X444 SEC0 1
    X444 FAC0 0.166528
    X444 FAC1 0.0219113
    X444 FAC2 -0.372408
    X444 FAC8 -0.11464
    X444 FAC10 -0.313385
    X444 FAC11 -0.493021
    X445 OBJ -0.127848
    X445 BUDGET 1
    X445 SEC1 1
    X445 FAC5 0.172571
    X445 FAC7 -0.321986
    X446 OBJ -0.112788
    X446 BUDGET 1
    X446 SEC2 1
    X446 FAC1 -0.709297
    X446 FAC2 -0.084169
    X446 FAC5 -0.316451
    X446 FAC7 -0.0244163
    X446 FAC8 0.143894
    X446 FAC10 -0.602049
    X446 FAC14 0.217884
    X447 OBJ -0.0757974
    X447 BUDGET 1
    X447 SEC3 1
    X447 FAC2 -0.280432
    X447 FAC5 0.292383
    X447 FAC7 -0.249205
    X447 FAC9 -0.111464
    X448 OBJ -0.0278105
    X448 BUDGET 1
    X448 SEC4 1
    X448 FAC0 0.0744512
    X448 FAC9 0.254232
    X448 FAC13 -0.383288
    X449 OBJ -0.110142
    X449 BUDGET 1
    X449 SEC5 1
    X449 FAC0 -0.0917783
    X449 FAC5 -0.219099
    X449 FAC7 0.0695629
    X449 FAC9 0.340618
    X449 FAC10 0.00387526
    X450 OBJ -0.072117
    X450 BUDGET 1
    X450 SEC6 1
    X450 FAC1 0.332892
    X450 FAC3 0.20883
    X450 FAC6 0.115355
    X450 FAC7 0.209285
    X450 FAC8 0.365164
    X450 FAC10 -0.0410377
    X450 FAC14 -0.240413
    X451 OBJ -0.101152
    X451 BUDGET 1
    X451 SEC7 1
    X451 FAC0 0.199913
    X451 FAC4 -0.256865
    X451 FAC10 0.272722
    X451 FAC11 0.365884
    X451 FAC14 0.271419
    X452 OBJ -0.0708193
    X452 BUDGET 1
    X452 SEC8 1
    X452 FAC10 0.0519359
    X452 FAC12 -0.245534
    X453 OBJ -0.0916322
    X453 BUDGET 1
    X453 SEC9 1
    X453 FAC5 0.147894
    X454 OBJ -0.129181
    X454 BUDGET 1
    X454 SEC10 1
    X454 FAC7 -0.433693
    X454 FAC11 0.362932
    X454 FAC13 0.218393
    X455 OBJ -0.0733841
    X455 BUDGET 1
    X455 SEC11 1
    X455 FAC0 0.176048
    X455 FAC1 -0.172388
    X455 FAC3 0.289878
    X455 FAC4 -0.637938
    X455 FAC5 -0.00242245
    X455 FAC9 0.260979
    X455 FAC11 0.339733
    X455 FAC12 -0.198142
    X455 FAC13 -0.149316
    X455 FAC14 -0.0847258
    X456 OBJ -0.125797
    X456 BUDGET 1
    X456 SEC0 1
    X456 FAC1 0.225393
    X456 FAC12 0.265577
    X456 FAC14 0.503038
    X457 OBJ -0.119615
    X457 BUDGET 1
    X457 SEC1 1
    X457 FAC0 0.454661
    X457 FAC3 0.0155501
    X457 FAC5 0.294132
    X457 FAC7 0.217382
    X457 FAC11 0.054362
    X458 OBJ -0.0769694
    X458 BUDGET 1
    X458 SEC2 1
    X458 FAC2 0.287474
    X458 FAC6 -0.285515
    X458 FAC7 -0.281424
    X458 FAC9 0.0790454
    X458 FAC11 0.484151
    X458 FAC12 0.107286
    X459 OBJ -0.12636
    X459 BUDGET 1
    X459 SEC3 1
    X459 FAC3 0.0614772
    X459 FAC4 0.127849
    X459 FAC10 0.425334
    X460 OBJ -0.040207
    X460 BUDGET 1
    X460 SEC4 1
    X460 FAC4 -0.203597
    X460 FAC5 0.0384336
    X460 FAC7 0.037666
    X460 FAC10 0.237018
    X460 FAC14 -0.318938
    X461 OBJ -0.0911224
    X461 BUDGET 1
    X461 SEC5 1
    X461 FAC3 -0.0520507
    X461 FAC5 0.393152
    X461 FAC7 -0.309591
    X461 FAC11 0.196771
    X462 OBJ -0.0585938
    X462 BUDGET 1
    X462 SEC6 1
    X462 FAC14 -0.0900868
    X463 OBJ -0.0623118
    X463 BUDGET 1
    X463 SEC7 1
    X463 FAC0 -0.0438769
    X463 FAC3 0.363296
    X463 FAC4 0.0177885
    X464 OBJ -0.117349
    X464 BUDGET 1
    X464 SEC8 1
    X464 FAC9 0.0846585
    X464 FAC12 -0.0355467
    X464 FAC14 0.227246
    X465 OBJ -0.120775
    X465 BUDGET 1
    X465 SEC9 1
    X465 FAC0 -0.196133
    X465 FAC1 0.308208
    X465 FAC5 -0.196776
    X465 FAC12 -0.0928606
    X466 OBJ -0.106637
    X466 BUDGET 1
    X466 SEC10 1
    X466 FAC0 -0.37209
    X466 FAC3 0.0664368
    X466 FAC10 -0.642294
    X467 OBJ -0.0517284
    X467 BUDGET 1
    X467 SEC11 1
    X467 FAC1 0.141546
    X467 FAC2 0.00650793
    X467 FAC6 0.0578648
    X467 FAC8 -0.596693
    X467 FAC10 -0.0592956
    X467 FAC14 0.520407
    X468 OBJ -0.126338
    X468 BUDGET 1
    X468 SEC0 1
    X468 FAC1 -0.322405
    X468 FAC2 -0.297485
    X468 FAC6 -0.317417
    X468 FAC9 -0.0306977
    X468 FAC14 0.189033
    X469 OBJ -0.110519
    X469 BUDGET 1
    X469 SEC1 1
    X469 FAC3 -0.264317
    X469 FAC5 -0.434514
    X469 FAC7 -0.0228511
    X469 FAC10 -0.173934
    X470 OBJ -0.0322049
    X470 BUDGET 1
    X470 SEC2 1
    X470 FAC0 -0.169171
    X470 FAC4 0.178232
    X470 FAC8 -0.367361
    X470 FAC10 -0.0477013
    X470 FAC11 0.123992
    X471 OBJ -0.0941943
    X471 BUDGET 1
    X471 SEC3 1
    X471 FAC0 0.136989
    X471 FAC1 0.0970919
    X471 FAC2 0.371565
    X471 FAC3 0.109376
    X471 FAC6 0.659943
    X471 FAC12 -0.227921
    X471 FAC13 -0.210519
    X472 OBJ -0.101271
    X472 BUDGET 1
    X472 SEC4 1
    X472 FAC3 -0.482526
    X472 FAC8 0.49503
    X473 OBJ -0.0224298
    X473 BUDGET 1
    X473 SEC5 1
    X473 FAC3 -0.474423
    X473 FAC4 -0.0758944
    X473 FAC7 0.511623
    X473 FAC8 0.0676909
    X473 FAC10 -0.239969
    X473 FAC14 -0.323864
    X474 OBJ -0.0898564
    X474 BUDGET 1
    X474 SEC6 1
    X474 FAC4 0.138288
    X474 FAC5 0.362963
    X474 FAC7 0.0613327
    X474 FAC11 -0.186413
    X475 OBJ -0.0201779
    X475 BUDGET 1
    X475 SEC7 1
    X475 FAC0 -0.253354
    X475 FAC1 0.547887
    X475 FAC2 0.507694
    X475 FAC5 -0.253418
    X475 FAC7 0.642886
    X475 FAC13 0.478321
    X476 OBJ -0.0477831
    X476 BUDGET 1
    X476 SEC8 1
    X476 FAC6 0.0934128
    X476 FAC7 -0.604389
    X476 FAC12 -0.41544
    X477 OBJ -0.14177
    X477 BUDGET 1
    X477 SEC9 1
    X477 FAC5 -0.379998
    X477 FAC6 -0.0959655
    X477 FAC7 -0.213992
    X477 FAC10 -0.206004
    X477 FAC11 0.200757
    X477 FAC12 0.0698037
    X477 FAC14 0.0234831
    X478 OBJ -0.100448
    X478 BUDGET 1
    X478 SEC10 1
    X478 FAC1 -0.424684
    X478 FAC9 0.682897
    X478 FAC10 0.358507
    X478 FAC13 -0.113862
    X479 OBJ -0.0324584
    X479 BUDGET 1
    X479 SEC11 1
    X480 OBJ -0.050235
    X480 BUDGET 1
    X480 SEC0 1
    X480 FAC0 0.173054
    X480 FAC1 0.0602711
    X480 FAC2 0.215863
    X480 FAC12 -0.224449
    X480 FAC13 -0.207841
    X480 FAC14 -0.130603
    X481 OBJ -0.0944892
    X481 BUDGET 1
    X481 SEC1 1
    X481 FAC0 -0.0120097
    X481 FAC5 0.328695
    X481 FAC7 0.00601284
    X481 FAC8 0.288615
    X481 FAC9 -0.150513
    X481 FAC10 0.0132422
    X481 FAC12 0.2704
    X482 OBJ -0.0614301
    X482 BUDGET 1
    X482 SEC2 1
    X482 FAC0 -0.170199
    X482 FAC1 -0.237415
    X482 FAC4 -0.00738083
    X482 FAC5 -0.306398
    X482 FAC7 0.255645
    X482 FAC8 -0.0846659
    X482 FAC9 -0.406513
    X482 FAC12 0.0723011
    X483 OBJ -0.0764345
    X483 BUDGET 1
    X483 SEC3 1
    X484 OBJ -0.0920345
    X484 BUDGET 1
    X484 SEC4 1
    X484 FAC1 -0.301323
    X484 FAC5 0.388842
    X484 FAC6 -0.0477314
    X484 FAC9 -0.000637773
    X485 OBJ -0.0269817
    X485 BUDGET 1
    X485 SEC5 1
    X485 FAC4 -0.0837656
    X485 FAC5 0.309752
    X485 FAC7 0.40547
    X485 FAC8 0.136818
    X485 FAC12 0.496528
    X485 FAC13 -0.361703
    X485 FAC14 0.298805
    X486 OBJ -0.07132
    X486 BUDGET 1
    X486 SEC6 1
    X486 FAC1 -0.325583
    X486 FAC2 0.174146
    X486 FAC3 0.628644
    X486 FAC8 0.301521
    X486 FAC12 -0.547513
    X486 FAC14 -0.247795
    X487 OBJ -0.133421
    X487 BUDGET 1
    X487 SEC7 1
    X487 FAC0 0.150546
    X488 OBJ -0.139446
    X488 BUDGET 1
    X488 SEC8 1
    X488 FAC1 0.158426
    X488 FAC4 0.00735835
    X488 FAC5 -0.196709
    X488 FAC14 -0.013864
    X489 OBJ -0.105696
    X489 BUDGET 1
    X489 SEC9 1
    X489 FAC0 -0.275034
    X489 FAC1 -0.36925
    X489 FAC4 0.371256
    X489 FAC8 0.397718
    X489 FAC9 -0.0439962
    X489 FAC10 0.0235427
    X490 OBJ -0.116461
    X490 BUDGET 1
    X490 SEC10 1
    X490 FAC7 0.444046
    X490 FAC12 0.110973
    X491 OBJ -0.0554801
    X491 BUDGET 1
    X491 SEC11 1
    X491 FAC2 0.0670391
    X491 FAC4 -0.131177
    X491 FAC12 0.386949
    X492 OBJ -0.145477
    X492 BUDGET 1
    X492 SEC0 1
    X492 FAC8 -0.501644
    X492 FAC11 -0.145568
    X492 FAC14 0.0210469
    X493 OBJ -0.0974734
    X493 BUDGET 1
    X493 SEC1 1
    X493 FAC0 0.505611
    X493 FAC10 -0.234049
    X493 FAC13 -0.577251
    X494 OBJ -0.124289
    X494 BUDGET 1
    X494 SEC2 1
    X494 FAC3 -0.112898
    X494 FAC5 -0.445336
    X495 OBJ -0.0398341
    X495 BUDGET 1
    X495 SEC3 1
    X495 FAC2 0.183021
    X495 FAC9 -0.0273042
    X495 FAC10 0.392793
    X495 FAC11 0.376453
    X496 OBJ -0.107433
    X496 BUDGET 1
    X496 SEC4 1
    X496 FAC6 0.246307
    X496 FAC7 -0.0460477
    X497 OBJ -0.0210742
    X497 BUDGET 1
    X497 SEC5 1
    X497 FAC5 -0.154966
    X497 FAC6 0.57805
    X497 FAC9 0.0382213
    X497 FAC13 0.367607
    X497 FAC14 -0.0529388
    X498 OBJ -0.0428228
    X498 BUDGET 1
    X498 SEC6 1
    X498 FAC1 0.13351
    X498 FAC2 -0.243703
    X498 FAC6 0.26651
    X498 FAC11 0.0778735
    X498 FAC12 -0.226419
    X499 OBJ -0.125463
    X499 BUDGET 1
    X499 SEC7 1
    X499 FAC1 -0.665014
    X499 FAC6 0.202639
    X500 OBJ -0.0203184
    X500 BUDGET 1
    X500 SEC8 1
    X500 FAC1 0.323604
    X500 FAC2 -0.000835272
    X500 FAC5 -0.0154472
    X500 FAC7 -0.514714
    X500 FAC10 0.0801299
    X501 OBJ -0.0284337
    X501 BUDGET 1
    X501 SEC9 1
    X501 FAC2 -0.318634
    X501 FAC3 -0.11633
    X501 FAC4 0.153342
    X501 FAC5 -0.216446
    X501 FAC8 -0.117324
    X501 FAC12 0.00477773
    X501 FAC14 0.00472401
    X502 OBJ -0.0445161
    X502 BUDGET 1
    X502 SEC10 1
    X502 FAC1 0.329987
    X502 FAC7 0.403815
    X502 FAC10 0.00441785
    X502 FAC12 0.264874
    X503 OBJ -0.0782368
    X503 BUDGET 1
    X503 SEC11 1
    X503 FAC0 -0.534482
    X503 FAC1 -0.378623
    X503 FAC4 -0.185299
    X503 FAC9 0.085633
    X504 OBJ -0.0731961
    X504 BUDGET 1
    X504 SEC0 1
    X504 FAC1 -0.0138742
    X504 FAC3 0.138569
    X504 FAC4 -0.39908
    X504 FAC9 0.122515
    X504 FAC11 0.246913
    X504 FAC13 0.171171
    X504 FAC14 -0.416071
    X505 OBJ -0.0685443
    X505 BUDGET 1
    X505 SEC1 1
    X505 FAC1 0.238027
    X505 FAC3 -0.0406527
    X505 FAC6 0.11029
    X505 FAC7 -0.476466
    X505 FAC8 0.284092
    X505 FAC11 0.118265
    X505 FAC12 0.287167
    X506 OBJ -0.0755139
    X506 BUDGET 1
    X506 SEC2 1
    X506 FAC2 0.725454
    X506 FAC3 0.121661
    X506 FAC4 0.862726
    X506 FAC6 -0.0919745
    X506 FAC8 -0.0432389
    X507 OBJ -0.137118
    X507 BUDGET 1
    X507 SEC3 1
    X507 FAC0 -0.156096
    X507 FAC2 -0.290942
    X507 FAC4 0.211617
    X507 FAC11 0.0337988
    X508 OBJ -0.053243
    X508 BUDGET 1
    X508 SEC4 1
    X508 FAC4 0.404584
    X508 FAC7 0.123023
    X508 FAC12 -0.107106
    X509 OBJ -0.0644857
    X509 BUDGET 1
    X509 SEC5 1
    X509 FAC0 -0.114932
    X509 FAC2 -0.211393
    X509 FAC5 -0.294419
    X509 FAC8 -0.217303
    X509 FAC11 0.574949
    X509 FAC13 0.0053337
    X510 OBJ -0.0384607
    X510 BUDGET 1
    X510 SEC6 1
    X510 FAC0 0.18418
    X510 FAC1 0.0356602
    X510 FAC2 -0.132831
    X510 FAC10 0.102935
    X510 FAC12 0.189641
    X511 OBJ -0.0623001
    X511 BUDGET 1
    X511 SEC7 1
    X511 FAC0 -0.0227492
    X511 FAC11 0.0434611
    X512 OBJ -0.0422738
    X512 BUDGET 1
    X512 SEC8 1
    X512 FAC1 -0.470649
    X512 FAC3 0.35552
    X512 FAC6 -0.254303
    X513 OBJ -0.0231182
    X513 BUDGET 1
    X513 SEC9 1
    X513 FAC3 0.536945
    X513 FAC5 -0.207319
    X513 FAC6 -0.13012
    X513 FAC7 -0.478902
    X513 FAC10 0.141935
    X513 FAC12 -0.0834749
    X514 OBJ -0.0488427
    X514 BUDGET 1
    X514 SEC10 1
    X514 FAC12 -0.404244
    X515 OBJ -0.0708687
    X515 BUDGET 1
    X515 SEC11 1
    X515 FAC2 0.29968
    X515 FAC6 0.324716
    X515 FAC12 0.537988
    X516 OBJ -0.0254686
    X516 BUDGET 1
    X516 SEC0 1
    X516 FAC1 -0.104032
    X516 FAC3 0.159169
    X516 FAC6 0.209508
    X516 FAC8 0.118079
    X516 FAC10 -0.258378
    X516 FAC12 0.0710025
    X517 OBJ -0.116675
    X517 BUDGET 1
    X517 SEC1 1
    X517 FAC0 0.0117206
    X517 FAC1 0.293509
    X517 FAC5 0.0622499
    X517 FAC6 0.0847313
    X517 FAC7 -0.233766
    X517 FAC8 -0.43956
    X517 FAC10 -0.149089
    X517 FAC13 0.466362
    X518 OBJ -0.0890424
    X518 BUDGET 1
    X518 SEC2 1
    X518 FAC0 -0.197795
    X518 FAC3 -0.118717
    X518 FAC5 -0.128443
    X518 FAC7 0.505605
    X518 FAC11 -0.411666
    X518 FAC12 0.12188
    X519 OBJ -0.135766
    X519 BUDGET 1
    X519 SEC3 1
    X519 FAC2 -0.120982
    X519 FAC3 -0.517894
    X519 FAC4 -0.359329
    X519 FAC5 -0.16796
    X519 FAC11 0.351159
    X520 OBJ -0.0532836
    X520 BUDGET 1
    X520 SEC4 1
    X520 FAC1 -0.401262
    X520 FAC5 -0.0962148
    X520 FAC10 -0.183402
    X520 FAC12 0.243576
    X520 FAC13 -0.32559
    X521 OBJ -0.0774644
    X521 BUDGET 1
    X521 SEC5 1
    X521 FAC1 0.156638
    X521 FAC2 0.25982
    X521 FAC3 0.321411
    X521 FAC11 0.45594
    X521 FAC12 -0.124931
    X521 FAC14 -0.0747807
    X522 OBJ -0.127677
    X522 BUDGET 1
    X522 SEC6 1
    X522 FAC0 -0.447891
    X522 FAC1 0.350204
    X522 FAC3 -0.194347
    X522 FAC4 -0.083785
    X522 FAC5 -0.537331
    X522 FAC8 -0.0871826
    X522 FAC9 -0.181677
    X522 FAC14 0.226928
    X523 OBJ -0.112577
    X523 BUDGET 1
    X523 SEC7 1
    X523 FAC1 -0.0611052
    X523 FAC2 -0.360834
    X523 FAC5 -0.231638
    X523 FAC7 -0.209939
    X524 OBJ -0.0828942
    X524 BUDGET 1
    X524 SEC8 1
    X524 FAC7 -0.100246
    X524 FAC8 -0.200613
    X524 FAC14 -0.24248
    X525 OBJ -0.116505
    X525 BUDGET 1
    X525 SEC9 1
    X525 FAC6 0.198447
    X525 FAC9 -0.0393563
    X525 FAC12 0.275232
    X526 OBJ -0.0992839
    X526 BUDGET 1
    X526 SEC10 1
    X526 FAC0 0.567628
    X526 FAC4 0.00520208
    X526 FAC5 -0.0327113
    X526 FAC6 0.0474546
    X526 FAC12 -0.00105417
    X526 FAC14 -0.153174
    X527 OBJ -0.0947356
    X527 BUDGET 1
    X527 SEC11 1
    X527 FAC1 -0.191407
    X527 FAC3 0.118023
    X527 FAC4 -0.241807
    X527 FAC5 -0.281682
    X527 FAC8 -0.24446
    X527 FAC12 -0.26574
    X527 FAC13 0.0607927
    X528 OBJ -0.0867261
    X528 BUDGET 1
    X528 SEC0 1
    X528 FAC0 0.421134
    X528 FAC4 0.604089
    X528 FAC7 -0.589491
    X528 FAC9 -0.0254475
    X528 FAC14 -0.253958
    X529 OBJ -0.0767571
    X529 BUDGET 1
    X529 SEC1 1
    X529 FAC2 -0.336468
    X529 FAC10 0.262682
    X530 OBJ -0.143153
    X530 BUDGET 1
    X530 SEC2 1
    X530 FAC0 -0.0924401
    X530 FAC5 -0.159398
    X530 FAC8 0.646764
    X530 FAC13 -0.0756612
    X530 FAC14 0.512079
    X531 OBJ -0.0371101
    X531 BUDGET 1
    X531 SEC3 1
    X531 FAC3 0.265813
    X531 FAC8 -0.128764
    X531 FAC13 0.230643
    X532 OBJ -0.0220637
    X532 BUDGET 1
    X532 SEC4 1
    X532 FAC0 0.240237
    X532 FAC1 -0.223878
    X532 FAC2 -0.30659
    X532 FAC8 0.217415
    X532 FAC9 -0.116174
    X532 FAC10 0.426436
    X532 FAC11 0.440939
    X532 FAC12 0.532723
    X533 OBJ -0.04371
    X533 BUDGET 1
    X533 SEC5 1
    X533 FAC2 -0.0124594
    X533 FAC3 -0.166231
    X533 FAC4 0.192027
    X533 FAC6 -0.109545
    X533 FAC7 0.159409
    X533 FAC8 -0.0892966
    X533 FAC9 -0.448987
    X533 FAC10 -0.0136844
    X534 OBJ -0.0755496
    X534 BUDGET 1
    X534 SEC6 1
    X534 FAC1 -0.0925075
    X534 FAC2 -0.138713
    X534 FAC4 0.149595
    X534 FAC11 0.133093
    X534 FAC12 0.100929
    X534 FAC13 0.268897
    X534 FAC14 -0.269273
    X535 OBJ -0.130132
    X535 BUDGET 1
    X535 SEC7 1
    X535 FAC1 -0.572292
    X535 FAC2 -0.166982
    X535 FAC11 0.144057
    X535 FAC12 -0.673284
    X536 OBJ -0.0508501
    X536 BUDGET 1
    X536 SEC8 1
    X536 FAC1 -0.0919014
    X536 FAC2 0.136538
    X536 FAC10 -0.977144
    X537 OBJ -0.0859452
    X537 BUDGET 1
    X537 SEC9 1
    X538 OBJ -0.0512527
    X538 BUDGET 1
    X538 SEC10 1
    X538 FAC1 -0.154941
    X538 FAC2 0.446102
    X538 FAC3 -0.252612
    X538 FAC6 -0.311801
    X538 FAC10 0.124741
    X539 OBJ -0.0563514
    X539 BUDGET 1
    X539 SEC11 1
    X539 FAC3 -0.179006
    X539 FAC4 -0.157806
    X539 FAC9 -0.113382
    X539 FAC11 0.0724084
    X539 FAC13 -0.38548
    X539 FAC14 -0.336292
    X540 OBJ -0.0618711
    X540 BUDGET 1
    X540 SEC0 1
    X540 FAC0 0.257092
    X540 FAC2 0.426312
    X540 FAC4 0.617561
    X540 FAC5 -0.0418776
    X540 FAC9 0.187383
    X541 OBJ -0.109303
    X541 BUDGET 1
    X541 SEC1 1
    X541 FAC3 0.0956703
    X541 FAC4 0.182087
    X541 FAC7 0.247883
    X541 FAC12 -0.639679
    X541 FAC13 -0.249796
    X541 FAC14 -0.104726
    X542 OBJ -0.0780796
    X542 BUDGET 1
    X542 SEC2 1
    X542 FAC4 0.707387
    X542 FAC7 -0.20715
    X542 FAC10 -0.186763
    X542 FAC11 -0.0812175
    X543 OBJ -0.111359
    X543 BUDGET 1
    X543 SEC3 1
    X543 FAC1 -0.737099
    X543 FAC3 -0.399819
    X543 FAC4 0.0997529
    X543 FAC6 0.154228
    X543 FAC7 0.373375
    X543 FAC9 -0.036766
    X543 FAC11 0.170574
    X544 OBJ -0.0987399
    X544 BUDGET 1
    X544 SEC4 1
    X544 FAC0 0.0585407
    X544 FAC3 -0.146059
    X544 FAC4 0.233554
    X544 FAC7 -0.115324
    X544 FAC8 -0.334317
    X544 FAC11 0.181172
    X544 FAC12 -0.0883705
    X545 OBJ -0.0926028
    X545 BUDGET 1
    X545 SEC5 1
    X545 FAC4 -0.354077
    X545 FAC6 0.204708
    X545 FAC8 -0.103011
    X546 OBJ -0.0697671
    X546 BUDGET 1
    X546 SEC6 1
    X546 FAC0 -0.112371
    X546 FAC1 0.0173863
    X546 FAC6 -0.480312
    X546 FAC7 -0.399257
    X546 FAC11 0.00558567
    X547 OBJ -0.0574665
    X547 BUDGET 1
    X547 SEC7 1
    X547 FAC1 -0.155222
    X547 FAC3 0.0474729
    X547 FAC6 -0.204521
    X547 FAC9 -0.287905
    X547 FAC12 0.171455
    X548 OBJ -0.0847134
    X548 BUDGET 1
    X548 SEC8 1
    X548 FAC5 0.123779
    X548 FAC10 -0.236195
    X548 FAC13 0.154313
    X549 OBJ -0.0247151
    X549 BUDGET 1
    X549 SEC9 1
    X549 FAC1 0.136214
    X549 FAC5 -0.0674965
    X549 FAC7 0.3975
    X549 FAC12 0.251107
    X549 FAC13 0.399807
    X550 OBJ -0.142635
    X550 BUDGET 1
    X550 SEC10 1
    X550 FAC10 0.699849
    X551 OBJ -0.14506
    X551 BUDGET 1
    X551 SEC11 1
    X551 FAC0 0.00857469
    X551 FAC1 0.433736
    X551 FAC3 -0.137513
    X551 FAC6 0.00015186
    X551 FAC10 -0.151381
    X551 FAC11 -0.219193
    X551 FAC12 0.298442
    X551 FAC14 -0.00750567
    X552 OBJ -0.088011
    X552 BUDGET 1
    X552 SEC0 1
    X552 FAC2 -0.201486
    X552 FAC5 -0.201852
    X552 FAC8 -0.779747
    X552 FAC11 -0.192799
    X552 FAC13 -0.141969
    X553 OBJ -0.129191
    X553 BUDGET 1
    X553 SEC1 1
    X553 FAC1 0.607775
    X553 FAC3 -0.532627
    X553 FAC6 0.0464195
    X553 FAC7 0.118255
    X553 FAC11 0.0101237
    X553 FAC12 0.334365
    X553 FAC14 0.127832
    X554 OBJ -0.0782049
    X554 BUDGET 1
    X554 SEC2 1
    X554 FAC1 0.279076
    X554 FAC2 -0.251048
    X554 FAC8 0.273763
    X554 FAC9 0.0311218
    X555 OBJ -0.0264084
    X555 BUDGET 1
    X555 SEC3 1
    X555 FAC3 0.266604
    X555 FAC6 -0.395726
    X555 FAC9 -0.0150861
    X555 FAC14 0.540612
    X556 OBJ -0.0744522
    X556 BUDGET 1
    X556 SEC4 1
    X556 FAC1 0.372301
    X556 FAC3 0.290758
    X556 FAC4 0.10285
    X556 FAC8 0.120021
    X557 OBJ -0.10699
    X557 BUDGET 1
    X557 SEC5 1
    X557 FAC5 0.198918
    X557 FAC7 0.0756104
    X557 FAC10 0.234116
    X557 FAC13 0.123352
    X558 OBJ -0.0841636
    X558 BUDGET 1
    X558 SEC6 1
    X558 FAC6 -0.0354125
    X558 FAC7 0.0644541
    X558 FAC8 -0.354413
    X558 FAC11 0.111448
    X558 FAC13 0.161465
    X559 OBJ -0.119673
    X559 BUDGET 1
    X559 SEC7 1
    X559 FAC1 0.50753
    X559 FAC2 -0.332502
    X559 FAC4 -0.172531
    X559 FAC6 0.143055
    X559 FAC7 -0.422628
    X559 FAC9 -0.152524
    X559 FAC13 0.139583
    X560 OBJ -0.146367
    X560 BUDGET 1
    X560 SEC8 1
    X560 FAC1 -0.0914128
    X560 FAC7 -0.108274
    X560 FAC10 -0.38413
    X560 FAC14 0.213022
    X561 OBJ -0.136581
    X561 BUDGET 1
    X561 SEC9 1
    X561 FAC4 -0.0377067
    X561 FAC5 -0.188874
    X561 FAC6 -0.0345012
    X561 FAC9 0.983935
    X561 FAC13 0.111165
    X561 FAC14 -0.349668
    X562 OBJ -0.114469
    X562 BUDGET 1
    X562 SEC10 1
    X562 FAC12 0.154699
    X562 FAC13 -0.307794
    X563 OBJ -0.0547704
    X563 BUDGET 1
    X563 SEC11 1
    X563 FAC2 0.294901
    X563 FAC3 0.181575
    X563 FAC4 0.308457
    X563 FAC6 0.0675361
    X563 FAC9 0.638537
    X564 OBJ -0.0684541
    X564 BUDGET 1
    X564 SEC0 1
    X564 FAC10 0.285957
    X564 FAC13 0.217757
    X565 OBJ -0.0720102
    X565 BUDGET 1
    X565 SEC1 1
    X565 FAC0 0.29837
    X565 FAC9 -0.261277
    X565 FAC14 0.229774
    X566 OBJ -0.0973228
    X566 BUDGET 1
    X566 SEC2 1
    X566 FAC0 -0.151042
    X566 FAC2 -1.05793
    X566 FAC4 0.0021419
    X566 FAC8 -0.161481
    X566 FAC11 -0.258547
    X567 OBJ -0.0949024
    X567 BUDGET 1
    X567 SEC3 1
    X567 FAC0 0.278282
    X567 FAC2 -0.20038
    X567 FAC8 0.181366
    X567 FAC9 -0.201609
    X567 FAC12 -0.1527
    X568 OBJ -0.110144
    X568 BUDGET 1
    X568 SEC4 1
    X568 FAC0 0.00788089
    X568 FAC3 0.182648
    X568 FAC4 -0.0453325
    X568 FAC10 -0.153105
    X568 FAC11 -0.182789
    X568 FAC12 0.194664
    X568 FAC13 0.033482
    X569 OBJ -0.0800269
    X569 BUDGET 1
    X569 SEC5 1
    X569 FAC0 0.825744
    X569 FAC3 -0.0354337
    X569 FAC6 0.126068
    X569 FAC10 -0.167288
    X569 FAC12 -0.552829
    X569 FAC14 -0.357889
    X570 OBJ -0.129305
    X570 BUDGET 1
    X570 SEC6 1
    X570 FAC1 -0.188113
    X570 FAC2 0.497398
    X570 FAC3 0.0407681
    X570 FAC5 0.129759
    X570 FAC6 -0.124945
    X570 FAC8 -0.550638
    X571 OBJ -0.0777951
    X571 BUDGET 1
    X571 SEC7 1
    X571 FAC5 0.344207
    X571 FAC6 0.51032
    X571 FAC10 -0.000423026
    X571 FAC11 0.266746
    X572 OBJ -0.114493
    X572 BUDGET 1
    X572 SEC8 1
    X572 FAC6 -0.0299455
    X572 FAC10 0.527949
    X572 FAC11 0.295157
    X572 FAC14 0.327076
    X573 OBJ -0.0355316
    X573 BUDGET 1
    X573 SEC9 1
    X573 FAC0 0.111895
    X573 FAC6 0.354819
    X573 FAC8 -0.175869
    X573 FAC10 -0.198375
    X573 FAC13 0.0354111
    X574 OBJ -0.0432372
    X574 BUDGET 1
    X574 SEC10 1
    X574 FAC1 0.210345
    X574 FAC5 0.770727
    X574 FAC8 0.110493
    X574 FAC10 -0.10656
    X574 FAC12 -0.100187
    X575 OBJ -0.133736
    X575 BUDGET 1
    X575 SEC11 1
    X575 FAC0 0.168296
    X575 FAC3 0.687018
    X575 FAC4 -0.167073
    X575 FAC9 -0.0852521
    X575 FAC11 0.115624
    X575 FAC12 -0.288477
    X575 FAC13 -0.508358
    X576 OBJ -0.140665
    X576 BUDGET 1
    X576 SEC0 1
    X576 FAC0 0.200154
    X576 FAC3 0.312163
    X576 FAC7 -0.478947
    X576 FAC9 0.00834935
    X577 OBJ -0.0418252
    X577 BUDGET 1
    X577 SEC1 1
    X577 FAC2 -0.125862
    X577 FAC3 -0.0584935
    X577 FAC9 -0.0453391
    X577 FAC10 -0.32036
    X578 OBJ -0.0609518
    X578 BUDGET 1
    X578 SEC2 1
    X578 FAC2 -0.30881
    X578 FAC4 0.453819
    X578 FAC5 0.0023329
    X578 FAC9 0.544623
    X579 OBJ -0.0971045
    X579 BUDGET 1
    X579 SEC3 1
    X579 FAC0 0.601386
    X579 FAC5 0.0396834
    X579 FAC7 -0.0102282
    X579 FAC10 0.25018
    X579 FAC13 0.258833
    X579 FAC14 0.336075
    X580 OBJ -0.0297617
    X580 BUDGET 1
    X580 SEC4 1
    X580 FAC0 -0.523943
    X580 FAC10 0.44722
    X581 OBJ -0.0306555
    X581 BUDGET 1
    X581 SEC5 1
    X581 FAC1 0.539649
    X581 FAC4 0.127013
    X581 FAC8 0.135255
    X581 FAC11 0.27194
    X581 FAC12 0.212491
    X582 OBJ -0.0410381
    X582 BUDGET 1
    X582 SEC6 1
    X582 FAC0 0.293824
    X582 FAC8 -0.296835
    X582 FAC14 -0.298118
    X583 OBJ -0.132006
    X583 BUDGET 1
    X583 SEC7 1
    X583 FAC0 0.376788
    X583 FAC1 -0.0376584
    X583 FAC2 -0.165434
    X583 FAC4 -0.508745
    X583 FAC5 -0.179997
    X583 FAC10 0.0152111
    X583 FAC13 -0.233226
    X584 OBJ -0.0921913
    X584 BUDGET 1
    X584 SEC8 1
    X584 FAC1 0.0885922
    X584 FAC4 0.194337
    X584 FAC8 0.00318352
    X584 FAC9 -0.413851
    X584 FAC10 0.0832011
    X584 FAC12 -0.392718
    X584 FAC13 -0.197551
    X584 FAC14 0.341109
    X585 OBJ -0.117383
    X585 BUDGET 1
    X585 SEC9 1
    X585 FAC0 0.703671
    X585 FAC1 -0.0602183
    X585 FAC4 -0.0063278
    X585 FAC5 -0.293312
    X585 FAC7 -0.0897518
    X585 FAC9 0.112546
    X585 FAC11 0.123408
    X585 FAC12 -0.235635
    X586 OBJ -0.0913923
    X586 BUDGET 1
    X586 SEC10 1
    X586 FAC0 0.016281
    X586 FAC6 0.360041
    X586 FAC9 0.107987
    X586 FAC13 -0.32988
    X586 FAC14 0.0151858
    X587 OBJ -0.0219667
    X587 BUDGET 1
    X587 SEC11 1
    X587 FAC1 0.665445
    X587 FAC4 0.280533
    X587 FAC7 -0.0415529
    X587 FAC11 -0.306044
    X587 FAC13 -0.0322884
    X588 OBJ -0.080401
    X588 BUDGET 1
    X588 SEC0 1
    X588 FAC1 -0.0257932
    X588 FAC2 0.262535
    X588 FAC7 0.15519
    X588 FAC9 -0.0617034
    X588 FAC11 -0.183857
    X589 OBJ -0.0679834
    X589 BUDGET 1
    X589 SEC1 1
    X589 FAC8 -0.0861804
    X589 FAC9 -0.528967
    X589 FAC10 0.317235
    X590 OBJ -0.0735732
    X590 BUDGET 1
    X590 SEC2 1
    X590 FAC9 0.325279
    X590 FAC11 0.327204
    X591 OBJ -0.0367774
    X591 BUDGET 1
    X591 SEC3 1
    X591 FAC1 -0.430506
    X591 FAC9 -0.471652
    X591 FAC14 0.263368
    X592 OBJ -0.133324
    X592 BUDGET 1
    X592 SEC4 1
    X592 FAC3 -0.0702261
    X592 FAC5 -0.447512
    X592 FAC8 -0.135288
    X592 FAC10 -0.217276
    X593 OBJ -0.0448607
    X593 BUDGET 1
    X593 SEC5 1
    X593 FAC5 0.303165
    X593 FAC9 0.529174
    X593 FAC13 0.551373
    X593 FAC14 0.0377766
    X594 OBJ -0.147722
    X594 BUDGET 1
    X594 SEC6 1
    X594 FAC10 0.0914793
    X594 FAC11 -0.0085007
    X594 FAC14 -0.141192
    X595 OBJ -0.0384266
    X595 BUDGET 1
    X595 SEC7 1
    X595 FAC1 -0.241876
    X595 FAC3 0.0901739
    X595 FAC6 0.118759
    X595 FAC7 -0.512778
    X595 FAC9 -0.250057
    X595 FAC11 0.484167
    X595 FAC13 -0.034834
    X595 FAC14 -0.291076
    X596 OBJ -0.0590603
    X596 BUDGET 1
    X596 SEC8 1
    X596 FAC0 -0.662999
    X596 FAC2 -0.523135
    X596 FAC9 0.421779
    X597 OBJ -0.0960912
    X597 BUDGET 1
    X597 SEC9 1
    X597 FAC1 -0.0364723
    X597 FAC7 -0.228603
    X597 FAC8 0.437739
    X597 FAC13 0.246533
    X598 OBJ -0.034277
    X598 BUDGET 1
    X598 SEC10 1
    X598 FAC1 0.0324022
    X598 FAC3 0.274973
    X598 FAC4 0.106769
    X598 FAC11 0.272316
    X598 FAC14 -0.16744
    X599 OBJ -0.0881958
    X599 BUDGET 1
    X599 SEC11 1
    X599 FAC1 -0.270874
    X599 FAC4 0.771212
    X599 FAC7 0.537613
    X599 FAC8 0.102144
    X599 FAC9 -0.194082
    X599 FAC10 0.548115
    X599 FAC12 0.00350698
    X600 OBJ -0.0208927
    X600 BUDGET 1
    X600 SEC0 1
    X600 FAC1 0.00627212
    X600 FAC8 -0.255395
    X600 FAC9 -0.0944989
    X600 FAC10 -0.115045
    X600 FAC12 0.165583
    X600 FAC13 -0.566379
    X601 OBJ -0.0220247
    X601 BUDGET 1
    X601 SEC1 1
    X601 FAC2 -0.413117
    X601 FAC3 0.338964
    X601 FAC7 -0.460245
    X601 FAC9 -0.0896072
    X601 FAC10 0.229656
    X601 FAC14 0.116228
    X602 OBJ -0.113667
    X602 BUDGET 1
    X602 SEC2 1
    X602 FAC4 0.0798538
    X602 FAC7 -0.240501
    X602 FAC9 0.00566221
    X602 FAC10 -0.397939
    X603 OBJ -0.117529
    X603 BUDGET 1
    X603 SEC3 1
    X603 FAC1 0.329255
    X603 FAC3 -0.185427
    X603 FAC10 0.042057
    X603 FAC13 -0.287154
    X604 OBJ -0.147251
    X604 BUDGET 1
    X604 SEC4 1
    X604 FAC8 0.209775
    X604 FAC10 -0.228025
    X604 FAC11 0.210428
    X604 FAC13 0.266785
    X605 OBJ -0.118156
    X605 BUDGET 1
    X605 SEC5 1
    X605 FAC3 -0.1885
    X605 FAC5 -0.105459
    X605 FAC6 0.433347
    X605 FAC10 0.164944
    X605 FAC13 -0.0929516
    X605 FAC14 -0.337333
    X606 OBJ -0.0336779
    X606 BUDGET 1
    X606 SEC6 1
    X606 FAC0 0.263518
    X606 FAC1 0.0458677
    X606 FAC3 0.213288
    X606 FAC4 -0.130086
    X606 FAC5 0.427545
    X606 FAC6 -0.165898
    X606 FAC11 -0.153908
    X606 FAC12 0.675585
    X607 OBJ -0.0233403
    X607 BUDGET 1
    X607 SEC7 1
    X607 FAC0 -0.0118472
    X607 FAC7 -0.201585
    X608 OBJ -0.0949372
    X608 BUDGET 1
    X608 SEC8 1
    X608 FAC0 -0.122569
    X608 FAC3 -0.17453
    X608 FAC4 0.310983
    X608 FAC7 0.179305
    X609 OBJ -0.113137
    X609 BUDGET 1
    X609 SEC9 1
    X609 FAC10 -0.146838
    X609 FAC12 -0.217556
    X609 FAC14 -0.0841658
    X610 OBJ -0.113355
    X610 BUDGET 1
    X610 SEC10 1
    X610 FAC1 -0.226811
    X610 FAC2 -0.250723
    X610 FAC5 0.312346
    X610 FAC7 0.23401
    X610 FAC10 -0.0758546
    X611 OBJ -0.115494
    X611 BUDGET 1
    X611 SEC11 1
    X611 FAC5 -0.297049
    X611 FAC10 -0.444388
    X611 FAC11 0.114589
    X611 FAC12 0.200815
    X612 OBJ -0.110606
    X612 BUDGET 1
    X612 SEC0 1
    X612 FAC3 0.121737
    X612 FAC6 -0.389658
    X612 FAC9 0.0530298
    X612 FAC11 -0.0576924
    X613 OBJ -0.0515574
    X613 BUDGET 1
    X613 SEC1 1
    X613 FAC0 0.0404474
    X613 FAC3 0.0272649
    X613 FAC6 -0.123327
    X613 FAC7 -0.393061
    X613 FAC8 -0.128393
    X613 FAC10 -0.693399
    X613 FAC13 0.00362202
    X613 FAC14 -0.434937
    X614 OBJ -0.0571231
    X614 BUDGET 1
    X614 SEC2 1
    X614 FAC2 -0.231235
    X614 FAC8 -0.248238
    X614 FAC12 -0.000471977
    X615 OBJ -0.113489
    X615 BUDGET 1
    X615 SEC3 1
    X615 FAC0 -0.215172
    X615 FAC1 -0.268325
    X615 FAC3 0.550577
    X615 FAC5 0.0960128
    X616 OBJ -0.0382945
    X616 BUDGET 1
    X616 SEC4 1
    X616 FAC1 0.189271
    X616 FAC2 0.15622
    X616 FAC3 0.274918
    X616 FAC5 0.337635
    X616 FAC6 0.0854326
    X616 FAC10 -0.557941
    X616 FAC12 0.349519
    X616 FAC13 -0.112802
    X617 OBJ -0.0804093
    X617 BUDGET 1
    X617 SEC5 1
    X617 FAC2 -0.0651293
    X617 FAC5 0.40523
    X617 FAC9 -0.280799
    X617 FAC11 0.280497
    X618 OBJ -0.127229
    X618 BUDGET 1
    X618 SEC6 1
    X618 FAC2 0.106324
    X618 FAC6 0.305499
    X618 FAC9 -0.010096
    X619 OBJ -0.0965577
    X619 BUDGET 1
    X619 SEC7 1
    X619 FAC1 -0.527652
    X619 FAC5 -0.153448
    X619 FAC11 -0.19278
    X619 FAC14 -0.328339
    X620 OBJ -0.029313
    X620 BUDGET 1
    X620 SEC8 1
    X620 FAC1 0.109824
    X620 FAC2 0.387006
    X620 FAC4 0.236881
    X620 FAC6 0.0499117
    X620 FAC7 0.0767069
    X620 FAC10 0.220715
    X621 OBJ -0.149231
    X621 BUDGET 1
    X621 SEC9 1
    X621 FAC1 -0.375175
    X621 FAC3 -0.00912798
    X621 FAC7 0.427193
    X621 FAC8 0.122783
    X621 FAC10 0.2077
    X622 OBJ -0.0312498
    X622 BUDGET 1
    X622 SEC10 1
    X622 FAC4 -0.0325806
    X622 FAC7 0.217273
    X622 FAC8 0.109515
    X623 OBJ -0.0955619
    X623 BUDGET 1
    X623 SEC11 1
    X623 FAC0 -0.0125653
    X623 FAC1 0.403094
    X623 FAC7 0.271861
    X623 FAC11 -0.0657291
    X623 FAC13 -0.448339
    X623 FAC14 -0.150012
    X624 OBJ -0.0764654
    X624 BUDGET 1
    X624 SEC0 1
    X624 FAC1 -0.466169
    X624 FAC3 -0.0129482
    X624 FAC10 0.173718
    X624 FAC13 0.220486
    X625 OBJ -0.0212092
    X625 BUDGET 1
    X625 SEC1 1
    X625 FAC1 0.174137
    X625 FAC5 0.0507171
    X625 FAC7 0.0699312
    X625 FAC12 -0.202895
    X625 FAC14 -0.210188
    X626 OBJ -0.0477739
    X626 BUDGET 1
    X626 SEC2 1
    X626 FAC0 -0.29838
    X626 FAC5 -0.109485
    X626 FAC8 -0.00811288
    X626 FAC14 -0.207017
    X627 OBJ -0.0780922
    X627 BUDGET 1
    X627 SEC3 1
    X627 FAC6 -0.0551112
    X627 FAC8 0.271337
    X627 FAC9 0.230199
    X627 FAC10 0.409928
    X628 OBJ -0.0739567
    X628 BUDGET 1
    X628 SEC4 1
    X628 FAC0 -0.0917519
    X628 FAC2 -0.0535349
    X628 FAC5 -0.187578
    X628 FAC9 0.0341257
    X628 FAC11 0.235651
    X629 OBJ -0.0343428
    X629 BUDGET 1
    X629 SEC5 1
    X629 FAC1 -0.442304
    X629 FAC2 -0.315985
    X629 FAC4 -0.0824505
    X629 FAC5 0.914122
    X629 FAC8 0.326433
    X629 FAC14 -0.8238
    X630 OBJ -0.110027
    X630 BUDGET 1
    X630 SEC6 1
    X630 FAC5 -0.635834
    X630 FAC6 0.38766
    X630 FAC7 0.0659097
    X630 FAC12 -0.155098
    X630 FAC13 0.244739
    X630 FAC14 -0.219445
    X631 OBJ -0.117613
    X631 BUDGET 1
    X631 SEC7 1
    X631 FAC0 -0.0361264
    X631 FAC5 -0.242298
    X631 FAC6 0.538685
    X632 OBJ -0.143939
    X632 BUDGET 1
    X632 SEC8 1
    X632 FAC5 -0.506475
    X632 FAC6 0.553598
    X632 FAC7 -0.0431272
    X632 FAC9 0.197054
    X633 OBJ -0.0705748
    X633 BUDGET 1
    X633 SEC9 1
    X633 FAC2 -0.270778
    X633 FAC3 0.00153972
    X633 FAC5 -0.546407
    X633 FAC9 -0.0975965
    X633 FAC13 0.0359503
    X634 OBJ -0.126613
    X634 BUDGET 1
    X634 SEC10 1
    X634 FAC1 -0.0586329
    X634 FAC3 -0.715716
    X634 FAC7 -0.0989632
    X634 FAC14 0.106891
    X635 OBJ -0.123043
    X635 BUDGET 1
    X635 SEC11 1
    X635 FAC0 -0.0742357
    X635 FAC4 -0.480106
    X635 FAC5 -0.227741
    X635 FAC6 0.481898
    X636 OBJ -0.0541007
    X636 BUDGET 1
    X636 SEC0 1
    X636 FAC1 0.173642
    X636 FAC2 -0.259687
    X636 FAC9 -0.0853026
    X637 OBJ -0.0318346
    X637 BUDGET 1
    X637 SEC1 1
    X637 FAC2 -0.0963226
    X637 FAC4 -0.0848763
    X637 FAC8 -0.371381
    X637 FAC9 -0.030495
    X637 FAC10 -0.0739529
    X637 FAC11 0.322656
    X637 FAC14 0.0755595
    X638 OBJ -0.111058
    X638 BUDGET 1
    X638 SEC2 1
    X638 FAC2 0.181639
    X638 FAC4 -0.265588
    X638 FAC5 -0.609451
    X638 FAC10 -0.101903
    X638 FAC11 -0.269999
    X638 FAC14 -0.00425837
    X639 OBJ -0.0902939
    X639 BUDGET 1
    X639 SEC3 1
    X639 FAC0 0.653234
    X639 FAC4 -0.2229
    X639 FAC8 0.106036
    X639 FAC10 0.163561
    X640 OBJ -0.105104
    X640 BUDGET 1
    X640 SEC4 1
    X640 FAC1 -0.0956094
    X640 FAC5 -0.398349
    X640 FAC7 0.524622
    X640 FAC9 -0.010708
    X640 FAC10 0.407729
    X640 FAC12 -0.052018
    X640 FAC13 0.53026
    X640 FAC14 -0.0513883
    X641 OBJ -0.112417
    X641 BUDGET 1
    X641 SEC5 1
    X641 FAC1 -0.457666
    X641 FAC9 -0.21941
    X641 FAC13 -0.239035
    X642 OBJ -0.135893
    X642 BUDGET 1
    X642 SEC6 1
    X642 FAC1 0.0898554
    X642 FAC2 0.0172127
    X642 FAC10 -0.0701855
    X642 FAC13 0.780563
    X643 OBJ -0.132125
    X643 BUDGET 1
    X643 SEC7 1
    X643 FAC3 -0.0377674
    X643 FAC6 0.187769
    X643 FAC8 -0.00315409
    X643 FAC10 0.131244
    X643 FAC12 0.0336971
    X643 FAC14 -0.25693
    X644 OBJ -0.107034
    X644 BUDGET 1
    X644 SEC8 1
    X644 FAC0 0.0757022
    X644 FAC3 0.179239
    X644 FAC4 0.115343
    X644 FAC5 -0.0162689
    X644 FAC6 -0.210167
    X645 OBJ -0.0557299
    X645 BUDGET 1
    X645 SEC9 1
    X645 FAC0 -0.521311
    X645 FAC7 0.331548
    X645 FAC12 0.511652
    X646 OBJ -0.141839
    X646 BUDGET 1
    X646 SEC10 1
    X646 FAC2 -0.452743
    X646 FAC6 0.273719
    X646 FAC7 0.368582
    X646 FAC10 -0.134657
    X646 FAC12 -0.10751
    X647 OBJ -0.0526673
    X647 BUDGET 1
    X647 SEC11 1
    X647 FAC9 0.088363
    X647 FAC11 -0.119613
    X647 FAC14 0.0623363
    X648 OBJ -0.0770517
    X648 BUDGET 1
    X648 SEC0 1
    X649 OBJ -0.110589
    X649 BUDGET 1
    X649 SEC1 1
    X649 FAC3 0.181646
    X649 FAC4 -0.227979
    X649 FAC7 0.303965
    X649 FAC8 -0.183957
    X649 FAC9 0.136463
    X649 FAC13 -0.0885505
    X650 OBJ -0.0843174
    X650 BUDGET 1
    X650 SEC2 1
    X650 FAC1 0.441116
    X650 FAC7 -0.0538821
    X650 FAC8 0.0689408
    X650 FAC11 0.148339
    X650 FAC14 -0.0715698
    X651 OBJ -0.0239734
    X651 BUDGET 1
    X651 SEC3 1
    X651 FAC0 -0.239165
    X651 FAC13 0.1906
    X652 OBJ -0.0859348
    X652 BUDGET 1
    X652 SEC4 1
    X652 FAC2 0.19799
    X652 FAC9 -0.031404
    X652 FAC13 0.42629
    X652 FAC14 -0.300412
    X653 OBJ -0.130456
    X653 BUDGET 1
    X653 SEC5 1
    X653 FAC0 0.0342141
    X653 FAC1 0.246145
    X653 FAC8 -0.240476
    X653 FAC11 0.273232
    X653 FAC14 0.290874
    X654 OBJ -0.0856018
    X654 BUDGET 1
    X654 SEC6 1
    X654 FAC1 -0.236311
    X654 FAC3 -0.288963
    X654 FAC4 -0.167679
    X654 FAC6 0.152934
    X654 FAC8 -0.0555933
    X654 FAC12 -0.166772
    X654 FAC13 0.236375
    X655 OBJ -0.0669417
    X655 BUDGET 1
    X655 SEC7 1
    X655 FAC5 0.323836
    X655 FAC7 -0.178615
    X655 FAC9 -0.154865
    X656 OBJ -0.0957717
    X656 BUDGET 1
    X656 SEC8 1
    X656 FAC4 -0.271063
    X656 FAC6 0.0742845
    X656 FAC9 0.0898939
    X656 FAC11 -0.239886
    X657 OBJ -0.0867386
    X657 BUDGET 1
    X657 SEC9 1
    X657 FAC0 0.172131
    X657 FAC2 0.0171793
    X657 FAC4 -0.241547
    X657 FAC5 -0.423683
    X657 FAC6 0.0727849
    X657 FAC12 -0.130159
    X658 OBJ -0.0291644
    X658 BUDGET 1
    X658 SEC10 1
    X658 FAC0 -0.00950401
    X658 FAC1 0.46025
    X658 FAC3 -0.531971
    X658 FAC5 -0.0414301
    X658 FAC6 -0.260982
    X658 FAC7 -0.0446811
    X658 FAC11 -0.271778
    X658 FAC12 0.233819
    X658 FAC13 0.113422
    X659 OBJ -0.0978741
    X659 BUDGET 1
    X659 SEC11 1
    X659 FAC1 0.448032
    X659 FAC4 0.126195
    X659 FAC6 -0.0426226
    X659 FAC10 0.335824
    X659 FAC12 0.14078
    X659 FAC14 -0.0721384
    X660 OBJ -0.03195
    X660 BUDGET 1
    X660 SEC0 1
    X660 FAC0 -0.0428628
    X660 FAC6 0.246181
    X660 FAC7 -0.669998
    X660 FAC10 0.024136
    X660 FAC11 -0.0921501
    X660 FAC13 0.106454
    X661 OBJ -0.0851147
    X661 BUDGET 1
    X661 SEC1 1
    X661 FAC3 0.151425
    X661 FAC5 0.567247
    X661 FAC8 -0.0737274
    X661 FAC11 0.504464
    X661 FAC12 0.0775619
    X661 FAC14 0.0262994
    X662 OBJ -0.0225901
    X662 BUDGET 1
    X662 SEC2 1
    X662 FAC1 -0.34031
    X662 FAC4 0.00169481
    X662 FAC6 -0.236527
    X662 FAC9 -0.0558549
    X662 FAC14 0.230303
    X663 OBJ -0.0735461
    X663 BUDGET 1
    X663 SEC3 1
    X663 FAC0 0.543926
    X663 FAC4 0.398674
    X663 FAC6 0.296317
    X663 FAC7 0.213363
    X663 FAC8 0.22249
    X663 FAC11 0.145085
    X663 FAC12 0.0959715
    X664 OBJ -0.0476181
    X664 BUDGET 1
    X664 SEC4 1
    X664 FAC11 -0.480296
    X665 OBJ -0.0459226
    X665 BUDGET 1
    X665 SEC5 1
    X665 FAC1 -0.022623
    X665 FAC2 -0.225264
    X665 FAC4 -0.113064
    X666 OBJ -0.0666181
    X666 BUDGET 1
    X666 SEC6 1
    X666 FAC0 0.119017
    X666 FAC2 0.0878454
    X666 FAC3 -0.204308
    X666 FAC10 0.173542
    X666 FAC12 -0.0809991
    X667 OBJ -0.0427103
    X667 BUDGET 1
    X667 SEC7 1
    X667 FAC0 -0.194349
    X667 FAC7 0.222078
    X667 FAC8 -0.234771
    X667 FAC12 -0.350543
    X667 FAC13 -0.171544
    X667 FAC14 -0.473708
    X668 OBJ -0.0613965
    X668 BUDGET 1
    X668 SEC8 1
    X668 FAC3 0.110584
    X668 FAC4 0.226867
    X668 FAC6 -0.228766
    X668 FAC7 -0.301267
    X668 FAC8 -0.0421555
    X668 FAC9 -0.573053
    X668 FAC10 -0.0673568
    X668 FAC13 0.51736
    X668 FAC14 0.154121
    X669 OBJ -0.11419
    X669 BUDGET 1
    X669 SEC9 1
    X669 FAC9 -0.115944
    X669 FAC11 -0.223232
    X669 FAC13 0.196017
    X670 OBJ -0.0663858
    X670 BUDGET 1
    X670 SEC10 1
    X670 FAC7 0.0442767
    X670 FAC9 0.12815
    X670 FAC10 0.174554
    X670 FAC13 -0.315865
    X671 OBJ -0.10033
    X671 BUDGET 1
    X671 SEC11 1
    X671 FAC0 -0.425412
    X671 FAC3 -0.813041
    X671 FAC8 -0.896102
    X671 FAC9 0.27261
    X671 FAC11 0.372235
    X671 FAC12 0.239278
    X671 FAC13 -0.0387838
    X671 FAC14 -0.305388
    X672 OBJ -0.0237269
    X672 BUDGET 1
    X672 SEC0 1
    X672 FAC0 -0.0853746
    X672 FAC5 0.606703
    X672 FAC6 -0.343689
    X672 FAC7 0.276609
    X672 FAC8 -0.0353731
    X673 OBJ -0.0616585
    X673 BUDGET 1
    X673 SEC1 1
    X673 FAC2 0.447947
    X673 FAC7 0.2647
    X673 FAC13 -0.140678
    X673 FAC14 -0.317464
    X674 OBJ -0.0366604
    X674 BUDGET 1
    X674 SEC2 1
    X674 FAC0 0.423443
    X674 FAC2 -0.477462
    X674 FAC5 0.433791
    X674 FAC8 -0.172793
    X675 OBJ -0.132977
    X675 BUDGET 1
    X675 SEC3 1
    X675 FAC2 0.139
    X675 FAC5 -0.13688
    X676 OBJ -0.14999
    X676 BUDGET 1
    X676 SEC4 1
    X676 FAC0 -0.268041
    X676 FAC1 0.0941251
    X676 FAC4 -0.188343
    X676 FAC5 0.0299291
    X676 FAC11 -0.148811
    X676 FAC12 0.482756
    X677 OBJ -0.0500809
    X677 BUDGET 1
    X677 SEC5 1
    X677 FAC3 0.209368
    X677 FAC4 -0.418968
    X677 FAC8 0.204795
    X678 OBJ -0.0513118
    X678 BUDGET 1
    X678 SEC6 1
    X678 FAC3 0.407654
    X678 FAC10 -0.603952
    X679 OBJ -0.114393
    X679 BUDGET 1
    X679 SEC7 1
    X679 FAC6 -0.00355421
    X679 FAC7 -0.25319
    X679 FAC10 0.280036
    X679 FAC11 -0.404963
    X679 FAC14 0.365154
    X680 OBJ -0.0568188
    X680 BUDGET 1
    X680 SEC8 1
    X680 FAC0 0.341011
    X680 FAC3 -0.0290395
    X681 OBJ -0.111189
    X681 BUDGET 1
    X681 SEC9 1
    X681 FAC6 -0.0684107
    X681 FAC7 -0.25078
    X682 OBJ -0.0820677
    X682 BUDGET 1
    X682 SEC10 1
    X683 OBJ -0.147641
    X683 BUDGET 1
    X683 SEC11 1
    X683 FAC0 -0.118852
    X683 FAC10 0.32145
    X683 FAC11 0.0112953
    X683 FAC13 0.0155913
    X684 OBJ -0.0263347
    X684 BUDGET 1
    X684 SEC0 1
    X684 FAC0 0.210999
    X684 FAC5 -0.377158
    X684 FAC9 0.179223
    X685 OBJ -0.0665538
    X685 BUDGET 1
    X685 SEC1 1
    X685 FAC0 -0.134967
    X685 FAC8 0.532987
    X685 FAC10 -0.355208
    X685 FAC11 -0.0463232
    X685 FAC13 -0.519676
    X686 OBJ -0.125967
    X686 BUDGET 1
    X686 SEC2 1
    X686 FAC2 -0.15046
    X686 FAC9 0.0687925
    X686 FAC11 0.129415
    X687 OBJ -0.140669
    X687 BUDGET 1
    X687 SEC3 1
    X687 FAC0 0.737155
    X687 FAC5 0.0575534
    X687 FAC7 0.14444
    X687 FAC14 -0.126119
    X688 OBJ -0.107744
    X688 BUDGET 1
    X688 SEC4 1
    X688 FAC7 -0.0797265
    X688 FAC11 0.484243
    X688 FAC14 0.129527
    X689 OBJ -0.0271267
    X689 BUDGET 1
    X689 SEC5 1
    X689 FAC3 -0.122369
    X689 FAC4 0.491778
    X689 FAC8 0.145101
    X689 FAC9 -0.147774
    X689 FAC10 -0.20708
    X689 FAC12 -0.29676
    X690 OBJ -0.0555904
    X690 BUDGET 1
    X690 SEC6 1
    X690 FAC7 0.0392002
    X690 FAC8 0.147226
    X690 FAC9 -0.465516
    X690 FAC12 0.431508
    X691 OBJ -0.020228
    X691 BUDGET 1
    X691 SEC7 1
    X691 FAC3 0.095709
    X691 FAC4 0.408906
    X691 FAC6 -0.418336
    X691 FAC9 -0.171431
    X691 FAC10 -0.052397
    X691 FAC11 -0.379005
    X691 FAC13 -0.0527188
    X692 OBJ -0.0703124
    X692 BUDGET 1
    X692 SEC8 1
    X692 FAC0 -0.41649
    X692 FAC2 0.287611
    X692 FAC4 0.345663
    X692 FAC6 -0.0408049
    X692 FAC7 -0.681285
    X692 FAC9 -0.0739538
    X692 FAC12 -0.0148993
    X693 OBJ -0.0595007
    X693 BUDGET 1
    X693 SEC9 1
    X693 FAC2 -0.290149
    X693 FAC4 -0.326516
    X693 FAC10 0.134291
    X694 OBJ -0.112308
    X694 BUDGET 1
    X694 SEC10 1
    X694 FAC0 -0.103892
    X694 FAC4 -0.0103033
    X694 FAC6 0.375414
    X694 FAC8 0.363879
    X695 OBJ -0.0653818
    X695 BUDGET 1
    X695 SEC11 1
    X695 FAC0 0.387897
    X695 FAC2 0.123566
    X695 FAC4 0.418267
    X695 FAC8 -0.164294
    X695 FAC10 0.287118
    X695 FAC13 0.124937
    X696 OBJ -0.147791
    X696 BUDGET 1
    X696 SEC0 1
    X696 FAC2 -0.200457
    X696 FAC9 -0.36921
    X696 FAC14 0.222116
    X697 OBJ -0.0733097
    X697 BUDGET 1
    X697 SEC1 1
    X697 FAC0 0.129697
    X697 FAC4 -0.0719126
    X697 FAC5 -0.0804626
    X697 FAC11 -0.619986
    X697 FAC13 -0.492696
    X697 FAC14 0.0151087
    X698 OBJ -0.138231
    X698 BUDGET 1
    X698 SEC2 1
    X698 FAC3 0.228703
    X698 FAC4 0.321226
    X698 FAC5 0.661098
    X698 FAC8 0.107976
    X699 OBJ -0.0260741
    X699 BUDGET 1
    X699 SEC3 1
    X699 FAC0 -0.416734
    X699 FAC2 -0.376653
    X699 FAC11 0.378174
    X699 FAC12 0.40755
    X700 OBJ -0.0281482
    X700 BUDGET 1
    X700 SEC4 1
    X700 FAC0 0.00634788
    X700 FAC1 0.16074
    X700 FAC3 0.297256
    X700 FAC4 0.16518
    X700 FAC12 0.112806
    X700 FAC13 -0.29692
    X700 FAC14 -0.0653586
    X701 OBJ -0.0510014
    X701 BUDGET 1
    X701 SEC5 1
    X701 FAC2 0.130138
    X701 FAC4 -0.313163
    X701 FAC5 0.113563
    X701 FAC7 0.019198
    X702 OBJ -0.0696926
    X702 BUDGET 1
    X702 SEC6 1
    X702 FAC8 0.5179
    X702 FAC9 0.130653
    X702 FAC10 0.307931
    X702 FAC11 -0.0715423
    X702 FAC12 0.181549
    X702 FAC14 0.166996
    X703 OBJ -0.0920436
    X703 BUDGET 1
    X703 SEC7 1
    X703 FAC2 -0.114062
    X703 FAC5 0.48384
    X703 FAC10 0.209116
    X704 OBJ -0.0761746
    X704 BUDGET 1
    X704 SEC8 1
    X704 FAC0 0.906959
    X704 FAC4 -0.164561
    X704 FAC6 0.389529
    X705 OBJ -0.0592657
    X705 BUDGET 1
    X705 SEC9 1
    X705 FAC0 -0.0270816
    X705 FAC2 -0.0650715
    X705 FAC4 0.66511
    X705 FAC5 -0.0522703
    X705 FAC6 0.388385
    X705 FAC14 0.212632
    X706 OBJ -0.0396838
    X706 BUDGET 1
    X706 SEC10 1
    X706 FAC0 -0.305691
    X706 FAC7 0.331017
    X706 FAC10 -0.294173
    X706 FAC12 0.0365271
    X706 FAC14 -0.0910566
    X707 OBJ -0.073037
    X707 BUDGET 1
    X707 SEC11 1
    X707 FAC3 -0.307551
    X707 FAC6 -0.173738
    X707 FAC7 -0.00906376
    X707 FAC10 -0.31995
    X707 FAC14 0.0425552
    X708 OBJ -0.0500936
    X708 BUDGET 1
    X708 SEC0 1
    X708 FAC3 -0.0511842
    X708 FAC4 -0.214822
    X708 FAC8 -0.233278
    X708 FAC9 0.541505
    X708 FAC10 0.168351
    X709 OBJ -0.124757
    X709 BUDGET 1
    X709 SEC1 1
    X709 FAC7 -0.00774467
    X709 FAC9 0.140846
    X709 FAC11 0.167458
    X710 OBJ -0.0498533
    X710 BUDGET 1
    X710 SEC2 1
    X710 FAC3 0.385638
    X710 FAC6 -0.116848
    X710 FAC8 0.309441
    X710 FAC10 -0.184613
    X710 FAC12 0.269278
    X711 OBJ -0.0507044
    X711 BUDGET 1
    X711 SEC3 1
    X711 FAC5 -0.644284
    X711 FAC8 -0.161878
    X711 FAC9 0.0335071
    X711 FAC11 -0.0714608
    X712 OBJ -0.0599037
    X712 BUDGET 1
    X712 SEC4 1
    X712 FAC0 -0.0380468
    X712 FAC4 0.482592
    X713 OBJ -0.0706724
    X713 BUDGET 1
    X713 SEC5 1
    X713 FAC0 0.00957229
    X713 FAC2 0.0326758
    X713 FAC3 0.00966264
    X713 FAC4 0.320051
    X713 FAC10 -0.404491
    X714 OBJ -0.0548061
    X714 BUDGET 1
    X714 SEC6 1
    X714 FAC10 -0.273626
    X715 OBJ -0.0543558
    X715 BUDGET 1
    X715 SEC7 1
    X715 FAC1 0.0445603
    X715 FAC3 -0.01198
    X715 FAC12 -0.294963
    X716 OBJ -0.0560916
    X716 BUDGET 1
    X716 SEC8 1
    X716 FAC1 0.443318
    X716 FAC3 -0.131552
    X716 FAC5 -0.489873
    X716 FAC8 0.208614
    X717 OBJ -0.132931
    X717 BUDGET 1
    X717 SEC9 1
    X717 FAC4 0.0621885
    X717 FAC5 0.283849
    X717 FAC8 0.247715
    X717 FAC13 -0.0861737
    X718 OBJ -0.115962
    X718 BUDGET 1
    X718 SEC10 1
    X718 FAC0 -0.333613
    X718 FAC3 -0.205034
    X718 FAC4 0.319312
    X718 FAC7 0.241316
    X718 FAC12 -0.247683
    X718 FAC14 0.430043
    X719 OBJ -0.0267323
    X719 BUDGET 1
    X719 SEC11 1
    X719 FAC1 0.249915
    X719 FAC5 -0.37135
    X719 FAC6 0.0315922
    X719 FAC11 0.382052
    X719 FAC14 0.440236
    X720 OBJ -0.0578024
    X720 BUDGET 1
    X720 SEC0 1
    X720 FAC3 0.0862212
    X720 FAC5 -0.230232
    X720 FAC6 -0.0594288
    X720 FAC8 -0.343549
    X721 OBJ -0.10208
    X721 BUDGET 1
    X721 SEC1 1
    X721 FAC1 0.0674081
    X721 FAC2 -0.427308
    X721 FAC3 -0.312871
    X721 FAC4 0.453892
    X721 FAC5 -0.369901
    X721 FAC7 -0.00758665
    X721 FAC13 -0.521149
    X721 FAC14 0.0732189
    X722 OBJ -0.125574
    X722 BUDGET 1
    X722 SEC2 1
    X722 FAC5 0.291634
    X722 FAC10 -0.0280374
    X722 FAC11 -0.186813
    X723 OBJ -0.0380854
    X723 BUDGET 1
    X723 SEC3 1
    X723 FAC1 0.310045
    X723 FAC8 0.418937
    X724 OBJ -0.0740852
    X724 BUDGET 1
    X724 SEC4 1
    X724 FAC1 -0.109336
    X724 FAC3 -0.0345895
    X724 FAC7 0.0168778
    X724 FAC10 -0.071501
    X724 FAC11 -0.0548291
    X725 OBJ -0.106719
    X725 BUDGET 1
    X725 SEC5 1
    X725 FAC4 -0.0336757
    X725 FAC6 -0.233927
    X725 FAC8 0.164671
    X725 FAC13 -0.374221
    X726 OBJ -0.12303
    X726 BUDGET 1
    X726 SEC6 1
    X726 FAC0 0.216563
    X726 FAC3 -0.130243
    X726 FAC5 -0.256691
    X726 FAC8 -0.286667
    X726 FAC12 0.0206685
    X726 FAC13 0.0728356
    X726 FAC14 0.551771
    X727 OBJ -0.0915864
    X727 BUDGET 1
    X727 SEC7 1
    X727 FAC8 -0.771228
    X727 FAC9 0.0542034
    X727 FAC13 0.0757392
    X728 OBJ -0.0780421
    X728 BUDGET 1
    X728 SEC8 1
    X728 FAC1 -0.153762
    X728 FAC5 -0.235071
    X729 OBJ -0.0742385
    X729 BUDGET 1
    X729 SEC9 1
    X729 FAC1 0.125037
    X729 FAC4 -0.00307437
    X729 FAC5 0.191323
    X729 FAC8 0.323243
    X729 FAC10 -0.200852
    X729 FAC11 -0.0897007
    X729 FAC12 -0.0889916
    X730 OBJ -0.126623
    X730 BUDGET 1
    X730 SEC10 1
    X730 FAC3 -0.266373
    X730 FAC5 0.111791
    X730 FAC7 0.262535
    X730 FAC9 -0.184713
    X730 FAC11 -0.222558
    X730 FAC14 -0.144838
    X731 OBJ -0.148303
    X731 BUDGET 1
    X731 SEC11 1
    X731 FAC2 0.0483919
    X731 FAC3 -0.122443
    X731 FAC4 0.445702
    X731 FAC5 -0.472001
    X731 FAC10 -0.244179
    X731 FAC12 0.148576
    X731 FAC13 0.739255
    X732 OBJ -0.108954
    X732 BUDGET 1
    X732 SEC0 1
    X732 FAC8 0.27665
    X732 FAC9 -0.00279668
    X732 FAC11 -0.0820482
    X733 OBJ -0.0663744
    X733 BUDGET 1
    X733 SEC1 1
    X733 FAC1 -0.139707
    X733 FAC2 -0.25441
    X733 FAC11 0.0686176
    X734 OBJ -0.0802996
    X734 BUDGET 1
    X734 SEC2 1
    X734 FAC1 0.22075
    X734 FAC5 0.107932
    X734 FAC8 0.0696798
    X734 FAC13 -0.198568
    X735 OBJ -0.0631978
    X735 BUDGET 1
    X735 SEC3 1
    X735 FAC0 -0.349558
    X735 FAC4 0.0672149
    X735 FAC8 0.100002
    X735 FAC9 -0.297978
    X735 FAC12 0.729245
    X736 OBJ -0.0502567
    X736 BUDGET 1
    X736 SEC4 1
    X736 FAC2 0.117516
    X736 FAC3 -0.0270815
    X736 FAC7 0.0369169
    X736 FAC11 0.333754
    X736 FAC12 -0.0813782
    X736 FAC13 0.113918
    X737 OBJ -0.136046
    X737 BUDGET 1
    X737 SEC5 1
    X737 FAC0 -0.280688
    X737 FAC2 -0.231103
    X737 FAC5 -0.0915649
    X737 FAC10 -0.151082
    X737 FAC13 0.731168
    X738 OBJ -0.11471
    X738 BUDGET 1
    X738 SEC6 1
    X738 FAC1 -0.697317
    X738 FAC3 -0.10444
    X738 FAC9 0.121307
    X738 FAC12 -0.126209
    X739 OBJ -0.143625
    X739 BUDGET 1
    X739 SEC7 1
    X739 FAC0 0.343406
    X739 FAC1 0.885745
    X739 FAC5 0.110027
    X739 FAC8 -0.0980224
    X739 FAC10 0.43379
    X740 OBJ -0.123511
    X740 BUDGET 1
    X740 SEC8 1
    X740 FAC1 -0.0837877
    X740 FAC7 0.0200064
    X740 FAC13 0.311632
    X740 FAC14 0.128014
    X741 OBJ -0.0886649
    X741 BUDGET 1
    X741 SEC9 1
    X741 FAC1 0.150691
    X741 FAC2 0.129091
    X741 FAC12 -0.0983332
    X742 OBJ -0.146569
    X742 BUDGET 1
    X742 SEC10 1
    X742 FAC11 -0.248356
    X742 FAC14 0.470991
    X743 OBJ -0.106492
    X743 BUDGET 1
    X743 SEC11 1
    X743 FAC2 -0.163604
    X743 FAC3 0.565029
    X743 FAC4 -0.154547
    X743 FAC7 0.175222
    X743 FAC9 -0.41475
    X743 FAC12 0.427546
    X744 OBJ -0.0243471
    X744 BUDGET 1
    X744 SEC0 1
    X744 FAC0 0.297446
    X744 FAC5 0.483175
    X744 FAC6 -0.262096
    X744 FAC8 0.276534
    X744 FAC11 0.265479
    X744 FAC14 -0.0847587
    X745 OBJ -0.059393
    X745 BUDGET 1
    X745 SEC1 1
    X745 FAC8 0.126351
    X745 FAC13 -0.30504
    X746 OBJ -0.061674
    X746 BUDGET 1
    X746 SEC2 1
    X746 FAC2 -0.137092
    X746 FAC4 0.419155
    X746 FAC6 -0.069764
    X746 FAC7 0.446168
    X746 FAC11 -0.0409154
    X746 FAC13 0.269835
    X747 OBJ -0.0965593
    X747 BUDGET 1
    X747 SEC3 1
    X747 FAC2 0.182263
    X747 FAC7 -0.212756
    X747 FAC10 0.147041
    X748 OBJ -0.11997
    X748 BUDGET 1
    X748 SEC4 1
    X748 FAC1 -0.250568
    X748 FAC9 0.200917
    X748 FAC12 0.0206182
    X748 FAC13 0.452893
    X749 OBJ -0.149801
    X749 BUDGET 1
    X749 SEC5 1
    X749 FAC4 -0.0149038
    X749 FAC11 0.0218962
    X749 FAC13 -0.438076
    X750 OBJ -0.0732524
    X750 BUDGET 1
    X750 SEC6 1
    X750 FAC0 -0.122168
    X750 FAC1 -0.228204
    X750 FAC2 -0.569179
    X750 FAC10 -0.239511
    X750 FAC14 -0.207066
    X751 OBJ -0.100594
    X751 BUDGET 1
    X751 SEC7 1
    X751 FAC10 -0.0512957
    X751 FAC11 -0.0938001
    X751 FAC13 0.0574709
    X752 OBJ -0.137685
    X752 BUDGET 1
    X752 SEC8 1
    X752 FAC0 -0.342375
    X752 FAC4 0.666369
    X752 FAC6 0.0426475
    X752 FAC7 -0.109671
    X753 OBJ -0.0246414
    X753 BUDGET 1
    X753 SEC9 1
    X753 FAC0 -0.0679358
    X753 FAC2 -0.350883
    X753 FAC8 -0.246075
    X753 FAC13 -0.06817
    X754 OBJ -0.122454
    X754 BUDGET 1
    X754 SEC10 1
    X754 FAC0 0.328466
    X754 FAC3 0.136938
    X754 FAC6 0.346417
    X754 FAC7 0.0993258
    X754 FAC8 0.476465
    X754 FAC11 -0.0103787
    X755 OBJ -0.0730927
    X755 BUDGET 1
    X755 SEC11 1
    X755 FAC1 0.364613
    X755 FAC6 -0.356527
    X755 FAC9 -0.310053
    X756 OBJ -0.0423513
    X756 BUDGET 1
    X756 SEC0 1
    X756 FAC1 -0.16534
    X756 FAC5 -0.232007
    X756 FAC6 0.787135
    X756 FAC7 -0.57583
    X756 FAC8 -0.0421568
    X756 FAC9 -0.309477
    X756 FAC11 0.326234
    X757 OBJ -0.070422
    X757 BUDGET 1
    X757 SEC1 1
    X757 FAC2 -0.0116544
    X757 FAC11 -0.079729
    X757 FAC12 -0.13026
    X758 OBJ -0.0904137
    X758 BUDGET 1
    X758 SEC2 1
    X758 FAC0 0.316144
    X758 FAC2 -0.242755
    X758 FAC9 0.314565
    X759 OBJ -0.0437066
    X759 BUDGET 1
    X759 SEC3 1
    X759 FAC0 -0.491849
    X759 FAC6 -0.34983
    X759 FAC8 -0.362653
    X760 OBJ -0.119502
    X760 BUDGET 1
    X760 SEC4 1
    X760 FAC2 -0.315155
    X760 FAC3 -0.0718937
    X760 FAC6 -0.0107653
    X760 FAC7 -0.193918
    X760 FAC13 -0.600835
    X761 OBJ -0.114167
    X761 BUDGET 1
    X761 SEC5 1
    X761 FAC1 -0.198424
    X761 FAC2 -0.0787788
    X761 FAC3 0.442142
    X761 FAC9 -0.351831
    X762 OBJ -0.0553369
    X762 BUDGET 1
    X762 SEC6 1
    X762 FAC0 -0.471178
    X762 FAC6 -0.221072
    X762 FAC7 -0.13662
    X762 FAC9 -0.731046
    X762 FAC11 0.106518
    X762 FAC12 0.314926
    X762 FAC14 0.489428
    X763 OBJ -0.137232
    X763 BUDGET 1
    X763 SEC7 1
    X763 FAC1 0.0810299
    X763 FAC2 -0.27903
    X763 FAC3 -0.0191908
    X763 FAC5 0.229907
    X763 FAC10 -0.0276445
    X763 FAC11 -0.0541208
    X763 FAC13 0.116468
    X763 FAC14 -0.0437384
    X764 OBJ -0.0512336
    X764 BUDGET 1
    X764 SEC8 1
    X764 FAC1 -0.207065
    X764 FAC9 -0.510614
    X765 OBJ -0.121224
    X765 BUDGET 1
    X765 SEC9 1
    X765 FAC1 -0.263451
    X765 FAC2 0.11714
    X765 FAC7 -0.206441
    X765 FAC8 0.122089
    X765 FAC12 0.210809
    X766 OBJ -0.0474528
    X766 BUDGET 1
    X766 SEC10 1
    X766 FAC0 -0.683649
    X766 FAC1 -0.215876
    X766 FAC4 0.0096354
    X766 FAC6 0.054155
    X766 FAC8 -0.196295
    X766 FAC9 0.463837
    X766 FAC10 -0.124079
    X766 FAC12 0.438299
    X766 FAC13 0.202696
    X767 OBJ -0.109884
    X767 BUDGET 1
    X767 SEC11 1
    X767 FAC3 -0.284346
    X767 FAC4 0.306199
    X767 FAC6 0.0866674
    X767 FAC8 0.306639
    X767 FAC9 0.444805
    X767 FAC14 0.0600764
    X768 OBJ -0.0454643
    X768 BUDGET 1
    X768 SEC0 1
    X768 FAC3 0.322933
    X768 FAC7 0.246995
    X768 FAC10 -0.147973
    X768 FAC11 -0.303997
    X769 OBJ -0.149013
    X769 BUDGET 1
    X769 SEC1 1
    X769 FAC0 -0.172394
    X769 FAC1 0.295087
    X769 FAC8 0.315373
    X769 FAC10 0.602669
    X769 FAC13 0.329775
    X770 OBJ -0.0493748
    X770 BUDGET 1
    X770 SEC2 1
    X770 FAC0 0.37111
    X770 FAC1 0.765206
    X770 FAC3 0.00706392
    X770 FAC6 0.0431508
    X771 OBJ -0.0998047
    X771 BUDGET 1
    X771 SEC3 1
    X771 FAC4 0.308904
    X771 FAC5 0.105482
    X771 FAC6 -0.469063
    X771 FAC7 -0.0206506
    X771 FAC8 -0.157633
    X771 FAC12 0.177381
    X771 FAC13 -0.132776
    X772 OBJ -0.0245248
    X772 BUDGET 1
    X772 SEC4 1
    X772 FAC12 0.266818
    X773 OBJ -0.0929274
    X773 BUDGET 1
    X773 SEC5 1
    X773 FAC2 -0.123204
    X773 FAC7 -0.248976
    X773 FAC9 0.590996
    X773 FAC11 0.39521
    X773 FAC12 -0.0803723
    X774 OBJ -0.114778
    X774 BUDGET 1
    X774 SEC6 1
    X774 FAC2 0.221685
    X774 FAC6 0.253099
    X774 FAC12 -0.117121
    X774 FAC14 0.0481454
    X775 OBJ -0.067689
    X775 BUDGET 1
    X775 SEC7 1
    X775 FAC1 -0.277805
    X775 FAC3 0.133312
    X775 FAC6 -0.464119
    X775 FAC11 0.100809
    X776 OBJ -0.0641615
    X776 BUDGET 1
    X776 SEC8 1
    X776 FAC0 0.193942
    X776 FAC4 -0.107025
    X776 FAC5 -0.396682
    X776 FAC6 -0.387106
    X776 FAC7 -0.246497
    X776 FAC8 -0.226518
    X776 FAC14 0.285221
    X777 OBJ -0.111112
    X777 BUDGET 1
    X777 SEC9 1
    X777 FAC2 0.0673187
    X777 FAC3 0.290427
    X777 FAC6 0.299647
    X777 FAC7 -0.0997614
    X777 FAC11 -0.114808
    X777 FAC12 -0.152733
    X778 OBJ -0.0540083
    X778 BUDGET 1
    X778 SEC10 1
    X778 FAC2 -0.0653955
    X778 FAC5 -0.19045
    X778 FAC6 -0.221425
    X778 FAC10 -0.358842
    X778 FAC11 0.306064
    X778 FAC13 0.00301761
    X779 OBJ -0.0711655
    X779 BUDGET 1
    X779 SEC11 1
    X779 FAC9 0.645543
    X779 FAC13 -0.196195
    X780 OBJ -0.059896
    X780 BUDGET 1
    X780 SEC0 1
    X780 FAC0 0.369607
    X780 FAC2 0.186569
    X780 FAC3 -0.361028
    X780 FAC4 -0.104664
    X780 FAC5 0.291345
    X780 FAC7 -0.00212902
    X780 FAC10 -0.585368
    X780 FAC12 0.377041
    X780 FAC13 0.210458
    X781 OBJ -0.124781
    X781 BUDGET 1
    X781 SEC1 1
    X781 FAC7 0.610214
    X781 FAC14 0.0363715
    X782 OBJ -0.146756
    X782 BUDGET 1
    X782 SEC2 1
    X782 FAC0 -0.177373
    X782 FAC1 -0.00892184
    X782 FAC3 -0.40905
    X782 FAC9 -0.762287
    X782 FAC10 -0.19212
    X782 FAC14 -0.207105
    X783 OBJ -0.0587738
    X783 BUDGET 1
    X783 SEC3 1
    X783 FAC0 0.221144
    X783 FAC1 -0.0394079
    X783 FAC6 0.371579
    X783 FAC7 0.531217
    X783 FAC8 -0.221383
    X783 FAC12 -0.376285
    X783 FAC13 -0.3949
    X783 FAC14 0.400844
    X784 OBJ -0.112849
    X784 BUDGET 1
    X784 SEC4 1
    X784 FAC3 0.232644
    X784 FAC5 0.406262
    X784 FAC8 0.209588
    X784 FAC10 -0.0232814
    X784 FAC14 0.415458
    X785 OBJ -0.0961875
    X785 BUDGET 1
    X785 SEC5 1
    X785 FAC8 -0.237766
    X786 OBJ -0.0722738
    X786 BUDGET 1
    X786 SEC6 1
    X786 FAC1 0.0593874
    X786 FAC6 -0.126247
    X786 FAC7 -0.261618
    X786 FAC8 -0.0345078
    X786 FAC9 0.347398
    X786 FAC14 -0.389318
    X787 OBJ -0.149292
    X787 BUDGET 1
    X787 SEC7 1
    X787 FAC0 -0.0941201
    X787 FAC1 0.454099
    X787 FAC2 0.0860838
    X787 FAC3 -0.218159
    X787 FAC5 -0.536272
    X787 FAC7 -0.560046
    X787 FAC12 -0.081573
    X788 OBJ -0.121915
    X788 BUDGET 1
    X788 SEC8 1
    X788 FAC2 -0.210899
    X788 FAC6 -0.412408
    X788 FAC7 0.163131
    X788 FAC9 0.146822
    X788 FAC12 -0.167523
    X789 OBJ -0.136909
    X789 BUDGET 1
    X789 SEC9 1
    X789 FAC4 0.685951
    X789 FAC10 1.10792
    X790 OBJ -0.0513886
    X790 BUDGET 1
    X790 SEC10 1
    X790 FAC8 -0.144763
    X790 FAC10 -0.0619052
    X790 FAC13 -0.01826
    X791 OBJ -0.0380812
    X791 BUDGET 1
    X791 SEC11 1
    X791 FAC1 0.0226547
    X791 FAC5 0.0932442
    X791 FAC8 0.709322
    X791 FAC9 -0.375498
    X792 OBJ -0.146099
    X792 BUDGET 1
    X792 SEC0 1
    X792 FAC5 -0.472992
    X792 FAC6 0.146061
    X792 FAC8 0.146399
    X793 OBJ -0.0426175
    X793 BUDGET 1
    X793 SEC1 1
    X793 FAC1 0.753653
    X793 FAC5 0.393307
    X793 FAC8 -0.108969
    X793 FAC9 -0.284029
    X793 FAC12 0.241186
    X794 OBJ -0.0961599
    X794 BUDGET 1
    X794 SEC2 1
    X794 FAC4 0.156605
    X794 FAC5 0.0386241
    X794 FAC8 -0.803688
    X795 OBJ -0.104202
    X795 BUDGET 1
    X795 SEC3 1
    X795 FAC2 -0.00807432
    X795 FAC12 -0.0709219
    X796 OBJ -0.0537952
    X796 BUDGET 1
    X796 SEC4 1
    X796 FAC1 -0.0131576
    X796 FAC5 -0.358595
    X796 FAC7 0.177272
    X796 FAC11 0.292821
    X796 FAC13 -0.562197
    X797 OBJ -0.123933
    X797 BUDGET 1
    X797 SEC5 1
    X797 FAC0 0.0520581
    X797 FAC1 0.299113
    X797 FAC2 -0.221294
    X797 FAC4 0.692299
    X797 FAC8 0.0765775
    X797 FAC9 0.363734
    X797 FAC11 -0.544964
    X797 FAC14 0.201267
    X798 OBJ -0.144136
    X798 BUDGET 1
    X798 SEC6 1
    X798 FAC2 0.38041
    X798 FAC4 -0.0129443
    X798 FAC5 0.0725229
    X798 FAC7 -0.213818
    X798 FAC8 -0.156526
    X798 FAC9 0.0174857
    X799 OBJ -0.124171
    X799 BUDGET 1
    X799 SEC7 1
    X799 FAC0 0.431753
    X799 FAC1 0.355565
    X799 FAC8 0.0220951
    X799 FAC12 0.0597475
    X800 OBJ -0.0320576
    X800 BUDGET 1
    X800 SEC8 1
    X800 FAC0 0.499169
    X800 FAC2 0.132882
    X800 FAC9 0.352911
    X800 FAC10 0.0180569
    X800 FAC13 0.276578
    X800 FAC14 0.25008
    X801 OBJ -0.0378661
    X801 BUDGET 1
    X801 SEC9 1
    X801 FAC1 -0.184679
    X801 FAC6 0.151946
    X801 FAC13 0.293935
    X802 OBJ -0.0273164
    X802 BUDGET 1
    X802 SEC10 1
    X802 FAC2 0.0759788
    X802 FAC3 -0.337264
    X802 FAC4 0.109928
    X802 FAC5 0.299039
    X802 FAC6 0.114446
    X802 FAC10 -0.419111
    X802 FAC11 -0.0156992
    X803 OBJ -0.0391262
    X803 BUDGET 1
    X803 SEC11 1
    X803 FAC0 -0.0929888
    X804 OBJ -0.148399
    X804 BUDGET 1
    X804 SEC0 1
    X804 FAC0 0.196203
    X804 FAC1 0.468773
    X804 FAC4 0.0354756
    X804 FAC10 0.161815
    X804 FAC13 5.55248e-05
    X805 OBJ -0.131019
    X805 BUDGET 1
    X805 SEC1 1
    X805 FAC5 -0.509789
    X805 FAC11 -0.00418368
    X806 OBJ -0.0999248
    X806 BUDGET 1
    X806 SEC2 1
    X806 FAC2 0.461888
    X806 FAC7 0.283646
    X806 FAC11 -0.156631
    X806 FAC13 -0.118104
    X807 OBJ -0.11014
    X807 BUDGET 1
    X807 SEC3 1
    X807 FAC1 0.620692
    X807 FAC9 0.12367
    X807 FAC11 0.126778
    X807 FAC12 -0.000505516
    X808 OBJ -0.146763
    X808 BUDGET 1
    X808 SEC4 1
    X808 FAC3 0.159754
    X808 FAC5 -0.421331
    X808 FAC6 0.277261
    X809 OBJ -0.125337
    X809 BUDGET 1
    X809 SEC5 1
    X809 FAC1 0.656806
    X809 FAC5 -0.324498
    X809 FAC12 -0.436853
    X809 FAC13 -0.0647286
    X810 OBJ -0.0731696
    X810 BUDGET 1
    X810 SEC6 1
    X810 FAC1 0.454365
    X810 FAC3 0.512118
    X810 FAC4 -0.00170688
    X810 FAC8 0.122335
    X810 FAC13 0.294237
    X811 OBJ -0.0857409
    X811 BUDGET 1
    X811 SEC7 1
    X811 FAC0 0.0927149
    X811 FAC2 0.58472
    X811 FAC3 -0.00219512
    X811 FAC5 0.303326
    X811 FAC10 -0.764775
    X811 FAC13 -0.0768347
    X812 OBJ -0.128053
    X812 BUDGET 1
    X812 SEC8 1
    X812 FAC1 0.299294
    X812 FAC3 -0.0750066
    X812 FAC4 -0.167035
    X812 FAC5 -0.0208778
    X812 FAC9 0.290789
    X812 FAC14 -0.677282
    X813 OBJ -0.0893092
    X813 BUDGET 1
    X813 SEC9 1
    X813 FAC1 -0.0276483
    X813 FAC13 -0.242896
    X814 OBJ -0.112643
    X814 BUDGET 1
    X814 SEC10 1
    X814 FAC4 0.255243
    X814 FAC6 0.129564
    X814 FAC11 -0.112013
    X814 FAC13 0.208693
    X815 OBJ -0.0974468
    X815 BUDGET 1
    X815 SEC11 1
    X815 FAC7 0.153943
    X815 FAC8 -0.438473
    X815 FAC12 -0.08237
    X816 OBJ -0.142486
    X816 BUDGET 1
    X816 SEC0 1
    X816 FAC4 0.587276
    X816 FAC8 0.600958
    X816 FAC10 0.305955
    X816 FAC14 0.0850586
    X817 OBJ -0.0838576
    X817 BUDGET 1
    X817 SEC1 1
    X817 FAC2 -0.381606
    X817 FAC3 0.185582
    X817 FAC7 -0.040996
    X817 FAC9 -0.104798
    X817 FAC14 -0.123369
    X818 OBJ -0.141883
    X818 BUDGET 1
    X818 SEC2 1
    X818 FAC0 -0.259412
    X818 FAC1 -0.466254
    X818 FAC5 0.155605
    X818 FAC6 -0.00883209
    X818 FAC9 -0.170851
    X818 FAC10 0.00736321
    X818 FAC11 0.0105884
    X818 FAC12 -0.404403
    X819 OBJ -0.104289
    X819 BUDGET 1
    X819 SEC3 1
    X819 FAC0 0.038046
    X819 FAC7 -0.15405
    X819 FAC12 0.178476
    X819 FAC13 -0.412094
    X820 OBJ -0.0752196
    X820 BUDGET 1
    X820 SEC4 1
    X820 FAC1 0.203774
    X820 FAC2 0.0238694
    X820 FAC10 0.0299447
    X820 FAC12 0.242238
    X820 FAC14 0.46757
    X821 OBJ -0.094986
    X821 BUDGET 1
    X821 SEC5 1
    X821 FAC4 -0.343718
    X821 FAC6 -0.141558
    X821 FAC8 0.333752
    X821 FAC9 -0.0405185
    X821 FAC10 0.307311
    X821 FAC13 0.358953
    X821 FAC14 0.189492
    X822 OBJ -0.0977161
    X822 BUDGET 1
    X822 SEC6 1
    X822 FAC0 -0.23295
    X822 FAC7 0.174383
    X822 FAC9 -0.68186
    X822 FAC10 0.170232
    X823 OBJ -0.138772
    X823 BUDGET 1
    X823 SEC7 1
    X823 FAC5 -0.420821
    X823 FAC6 -0.0727547
    X823 FAC10 0.0976098
    X823 FAC12 -0.0463905
    X823 FAC13 -0.0498257
    X824 OBJ -0.11108
    X824 BUDGET 1
    X824 SEC8 1
    X824 FAC2 -0.170894
    X824 FAC3 -0.11338
    X824 FAC4 -0.0642405
    X824 FAC6 0.325762
    X824 FAC8 0.135138
    X824 FAC14 -0.0162169
    X825 OBJ -0.0667547
    X825 BUDGET 1
    X825 SEC9 1
    X825 FAC0 0.125879
    X825 FAC1 0.126607
    X825 FAC6 -0.36994
    X825 FAC9 0.0675728
    X825 FAC11 -0.346942
    X826 OBJ -0.0956763
    X826 BUDGET 1
    X826 SEC10 1
    X826 FAC7 0.274192
    X826 FAC8 0.182355
    X826 FAC12 0.131244
    X826 FAC14 0.312973
    X827 OBJ -0.0782913
    X827 BUDGET 1
    X827 SEC11 1
    X827 FAC4 -0.26305
    X827 FAC5 -0.0911032
    X827 FAC6 0.0046556
    X827 FAC7 0.570041
    X827 FAC8 -0.0701818
    X827 FAC10 -0.284928
    X827 FAC13 0.244575
    X828 OBJ -0.110832
    X828 BUDGET 1
    X828 SEC0 1
    X828 FAC1 -0.399466
    X828 FAC2 0.26942
    X828 FAC6 0.462552
    X828 FAC8 0.141646
    X828 FAC14 -0.490875
    X829 OBJ -0.102249
    X829 BUDGET 1
    X829 SEC1 1
    X829 FAC1 0.650931
    X829 FAC5 -0.00215128
    X830 OBJ -0.0400155
    X830 BUDGET 1
    X830 SEC2 1
    X830 FAC0 0.266583
    X830 FAC5 0.28726
    X830 FAC7 0.205304
    X830 FAC9 0.152841
    X830 FAC14 0.0981171
    X831 OBJ -0.137902
    X831 BUDGET 1
    X831 SEC3 1
    X831 FAC5 -0.200906
    X831 FAC7 0.205501
    X831 FAC13 0.0727259
    X832 OBJ -0.0603983
    X832 BUDGET 1
    X832 SEC4 1
    X832 FAC1 -0.157481
    X832 FAC5 -0.2182
    X832 FAC6 -0.146188
    X832 FAC7 0.071153
    X833 OBJ -0.0344569
    X833 BUDGET 1
    X833 SEC5 1
    X833 FAC3 -0.262623
    X833 FAC5 0.636296
    X833 FAC7 -0.464078
    X833 FAC11 -0.0463738
    X833 FAC12 0.307799
    X834 OBJ -0.0793891
    X834 BUDGET 1
    X834 SEC6 1
    X834 FAC3 0.403334
    X834 FAC9 -0.802204
    X834 FAC10 0.0215067
    X834 FAC14 0.104676
    X835 OBJ -0.0874429
    X835 BUDGET 1
    X835 SEC7 1
    X835 FAC1 -0.139768
    X835 FAC5 -0.321698
    X835 FAC6 -0.14251
    X835 FAC8 -0.381295
    X835 FAC9 0.205285
    X835 FAC12 0.316516
    X836 OBJ -0.142267
    X836 BUDGET 1
    X836 SEC8 1
    X836 FAC3 -0.31957
    X836 FAC13 -0.240313
    X837 OBJ -0.144962
    X837 BUDGET 1
    X837 SEC9 1
    X837 FAC1 -0.139694
    X837 FAC3 -0.12614
    X837 FAC9 -0.0554587
    X837 FAC12 0.0287246
    X837 FAC14 0.113065
    X838 OBJ -0.0282626
    X838 BUDGET 1
    X838 SEC10 1
    X838 FAC2 0.239262
    X838 FAC4 -0.0926082
    X838 FAC7 -0.259813
    X838 FAC12 0.466146
    X839 OBJ -0.146243
    X839 BUDGET 1
    X839 SEC11 1
    X839 FAC0 0.377972
    X839 FAC1 0.322387
    X839 FAC8 -0.00146197
    X840 OBJ -0.021683
    X840 BUDGET 1
    X840 SEC0 1
    X840 FAC2 -0.556915
    X840 FAC3 -0.329239
    X840 FAC5 0.371849
    X840 FAC11 0.0183893
    X840 FAC13 0.00699762
    X840 FAC14 0.051113
    X841 OBJ -0.121622
    X841 BUDGET 1
    X841 SEC1 1
    X841 FAC3 0.320284
    X841 FAC5 0.0479466
    X841 FAC6 0.497242
    X841 FAC8 -0.166693
    X841 FAC9 0.373802
    X841 FAC14 0.159335
    X842 OBJ -0.0630303
    X842 BUDGET 1
    X842 SEC2 1
    X842 FAC1 -0.172327
    X842 FAC5 -0.141899
    X842 FAC6 0.573624
    X842 FAC8 0.103123
    X842 FAC9 -0.22526
    X842 FAC14 -0.16885
    X843 OBJ -0.0624247
    X843 BUDGET 1
    X843 SEC3 1
    X843 FAC5 -0.176385
    X843 FAC6 0.258804
    X843 FAC10 0.235204
    X843 FAC12 -0.207883
    X844 OBJ -0.102397
    X844 BUDGET 1
    X844 SEC4 1
    X844 FAC7 -0.14206
    X844 FAC11 -0.0573936
    X844 FAC12 -0.254822
    X844 FAC13 -0.325964
    X845 OBJ -0.128593
    X845 BUDGET 1
    X845 SEC5 1
    X845 FAC3 -0.229284
    X845 FAC6 -0.232252
    X845 FAC10 0.0191469
    X846 OBJ -0.0606944
    X846 BUDGET 1
    X846 SEC6 1
    X846 FAC2 0.0752034
    X846 FAC5 0.102272
    X846 FAC8 0.512173
    X847 OBJ -0.0492051
    X847 BUDGET 1
    X847 SEC7 1
    X847 FAC0 -0.168395
    X847 FAC4 -0.0474991
    X847 FAC6 -0.121255
    X847 FAC7 0.506531
    X847 FAC9 -0.197704
    X847 FAC11 -0.133084
    X848 OBJ -0.0461804
    X848 BUDGET 1
    X848 SEC8 1
    X848 FAC2 -0.146866
    X848 FAC4 -0.50374
    X848 FAC5 -0.0550327
    X848 FAC12 -0.335629
    X848 FAC13 0.241332
    X849 OBJ -0.0626864
    X849 BUDGET 1
    X849 SEC9 1
    X849 FAC4 0.416994
    X849 FAC5 0.317763
    X849 FAC8 -0.303283
    X849 FAC11 0.0502988
    X849 FAC12 0.252253
    X850 OBJ -0.073419
    X850 BUDGET 1
    X850 SEC10 1
    X850 FAC6 -0.0143445
    X850 FAC7 0.206931
    X850 FAC8 0.593418
    X851 OBJ -0.0691964
    X851 BUDGET 1
    X851 SEC11 1
    X851 FAC0 0.277877
    X851 FAC3 -0.478368
    X851 FAC5 0.234448
    X851 FAC7 -0.198011
    X851 FAC9 -0.0874714
    X851 FAC11 -0.312084
    X851 FAC13 -0.142631
    X851 FAC14 -0.213477
    X852 OBJ -0.0947857
    X852 BUDGET 1
    X852 SEC0 1
    X852 FAC3 -0.238474
    X853 OBJ -0.127769
    X853 BUDGET 1
    X853 SEC1 1
    X853 FAC1 0.105017
    X853 FAC5 0.476839
    X853 FAC7 -0.342817
    X853 FAC8 0.0207833
    X853 FAC11 0.0711149
    X853 FAC14 0.200818
    X854 OBJ -0.0931598
    X854 BUDGET 1
    X854 SEC2 1
    X854 FAC0 -0.397503
    X854 FAC4 0.146195
    X854 FAC8 -0.027031
    X854 FAC10 -0.23607
    X854 FAC12 -0.0542195
    X855 OBJ -0.108756
    X855 BUDGET 1
    X855 SEC3 1
    X855 FAC1 -0.0805277
    X855 FAC4 -0.125648
    X855 FAC7 0.234826
    X855 FAC9 0.249337
    X856 OBJ -0.135721
    X856 BUDGET 1
    X856 SEC4 1
    X856 FAC1 0.303209
    X856 FAC3 -0.371805
    X856 FAC6 0.582971
    X856 FAC10 -0.461649
    X856 FAC13 -0.125495
    X857 OBJ -0.0904841
    X857 BUDGET 1
    X857 SEC5 1
    X857 FAC2 0.0253528
    X857 FAC7 -0.253011
    X857 FAC9 0.204255
    X857 FAC10 -0.206166
    X858 OBJ -0.142889
    X858 BUDGET 1
    X858 SEC6 1
    X858 FAC1 -0.0484292
    X858 FAC2 0.240727
    X858 FAC4 0.156262
    X858 FAC6 0.209193
    X858 FAC10 0.436653
    X859 OBJ -0.0327146
    X859 BUDGET 1
    X859 SEC7 1
    X859 FAC1 -0.0730334
    X859 FAC2 -0.688982
    X859 FAC3 -0.234428
    X859 FAC5 0.287992
    X859 FAC12 0.110529
    X859 FAC14 0.0381095
    X860 OBJ -0.0701094
    X860 BUDGET 1
    X860 SEC8 1
    X860 FAC2 0.225779
    X860 FAC10 -0.299079
    X860 FAC11 -0.436006
    X860 FAC12 0.111409
    X861 OBJ -0.122663
    X861 BUDGET 1
    X861 SEC9 1
    X861 FAC0 0.214204
    X861 FAC2 0.477933
    X861 FAC3 -0.00732939
    X861 FAC8 0.410808
    X861 FAC11 -0.102767
    X861 FAC14 -0.323577
    X862 OBJ -0.0323285
    X862 BUDGET 1
    X862 SEC10 1
    X862 FAC0 0.285594
    X862 FAC2 -0.445108
    X862 FAC6 0.0409207
    X862 FAC13 0.119679
    X863 OBJ -0.108441
    X863 BUDGET 1
    X863 SEC11 1
    X863 FAC0 0.12691
    X863 FAC1 -0.204359
    X863 FAC2 -0.0814328
    X863 FAC8 -0.589778
    X863 FAC9 -0.226056
    X863 FAC11 0.0796144
    X863 FAC12 0.255122
    X864 OBJ -0.0771617
    X864 BUDGET 1
    X864 SEC0 1
    X864 FAC3 -0.537496
    X864 FAC11 -0.3459
    X864 FAC12 -0.729085
    X864 FAC14 -0.572628
    X865 OBJ -0.0619065
    X865 BUDGET 1
    X865 SEC1 1
    X865 FAC0 -0.446975
    X865 FAC3 -0.271874
    X865 FAC8 -0.0664051
    X865 FAC10 0.20838
    X865 FAC11 0.789262
    X865 FAC12 0.197009
    X865 FAC13 0.107014
    X866 OBJ -0.108467
    X866 BUDGET 1
    X866 SEC2 1
    X866 FAC1 -0.315306
    X866 FAC4 0.205771
    X866 FAC5 0.087852
    X866 FAC7 -0.34831
    X866 FAC8 -0.535636
    X867 OBJ -0.0502928
    X867 BUDGET 1
    X867 SEC3 1
    X867 FAC3 -0.0547051
    X867 FAC6 -0.0201895
    X867 FAC14 0.00158834
    X868 OBJ -0.0420887
    X868 BUDGET 1
    X868 SEC4 1
    X868 FAC9 0.386085
    X868 FAC12 -0.274819
    X868 FAC13 0.553069
    X869 OBJ -0.147353
    X869 BUDGET 1
    X869 SEC5 1
    X869 FAC0 -0.0668215
    X869 FAC6 -0.433801
    X869 FAC7 -0.486479
    X869 FAC14 -0.193764
    X870 OBJ -0.0481062
    X870 BUDGET 1
    X870 SEC6 1
    X870 FAC7 -0.169435
    X870 FAC10 -0.310719
    X870 FAC11 -0.0312716
    X870 FAC12 -0.288797
    X871 OBJ -0.0339794
    X871 BUDGET 1
    X871 SEC7 1
    X871 FAC6 -0.476068
    X871 FAC8 0.231562
    X871 FAC11 -0.130383
    X871 FAC13 0.595922
    X872 OBJ -0.0933873
    X872 BUDGET 1
    X872 SEC8 1
    X872 FAC2 0.366642
    X872 FAC11 0.2486
    X873 OBJ -0.143237
    X873 BUDGET 1
    X873 SEC9 1
    X873 FAC1 0.0325488
    X873 FAC6 0.163416
    X873 FAC8 0.138935
    X873 FAC10 -0.601195
    X873 FAC12 0.307424
    X873 FAC14 -0.514326
    X874 OBJ -0.0388846
    X874 BUDGET 1
    X874 SEC10 1
    X874 FAC1 0.262437
    X874 FAC2 -0.0391579
    X874 FAC4 -0.0747103
    X874 FAC5 0.0132101
    X874 FAC12 -0.0680806
    X874 FAC14 -0.507245
    X875 OBJ -0.0361562
    X875 BUDGET 1
    X875 SEC11 1
    X875 FAC9 0.147097
    X875 FAC13 0.173861
    X875 FAC14 -0.284324
    X876 OBJ -0.105933
    X876 BUDGET 1
    X876 SEC0 1
    X876 FAC2 0.126284
    X876 FAC4 -0.0866523
    X876 FAC5 -0.334234
    X876 FAC8 -0.11787
    X876 FAC9 0.0626426
    X876 FAC11 0.112374
    X876 FAC12 -0.2247
    X876 FAC14 0.2039
    X877 OBJ -0.0920562
    X877 BUDGET 1
    X877 SEC1 1
    X877 FAC1 0.195137
    X877 FAC2 -0.176373
    X877 FAC9 0.179803
    X877 FAC13 -0.122218
    X878 OBJ -0.128267
    X878 BUDGET 1
    X878 SEC2 1
    X878 FAC1 -0.164254
    X878 FAC2 -0.346743
    X878 FAC6 0.000422515
    X878 FAC14 0.120662
    X879 OBJ -0.0589146
    X879 BUDGET 1
    X879 SEC3 1
    X879 FAC6 0.15518
    X879 FAC9 0.600635
    X879 FAC11 0.0537091
    X880 OBJ -0.134529
    X880 BUDGET 1
    X880 SEC4 1
    X880 FAC3 -0.181648
    X880 FAC4 -0.106308
    X880 FAC8 0.241808
    X880 FAC10 0.225127
    X881 OBJ -0.0742216
    X881 BUDGET 1
    X881 SEC5 1
    X881 FAC1 -0.000887372
    X881 FAC3 0.173371
    X881 FAC4 0.240972
    X881 FAC5 0.13652
    X881 FAC11 -0.101813
    X881 FAC12 0.281022
    X882 OBJ -0.102796
    X882 BUDGET 1
    X882 SEC6 1
    X882 FAC3 0.124861
    X882 FAC6 -0.0535416
    X882 FAC7 0.316833
    X882 FAC11 0.104111
    X883 OBJ -0.0684096
    X883 BUDGET 1
    X883 SEC7 1
    X883 FAC0 0.0196421
    X883 FAC1 0.251094
    X883 FAC4 -0.0263774
    X883 FAC8 -0.281233
    X883 FAC9 0.0816436
    X883 FAC12 -0.492389
    X884 OBJ -0.076247
    X884 BUDGET 1
    X884 SEC8 1
    X884 FAC1 -0.365236
    X884 FAC7 -0.0730531
    X884 FAC9 0.0199167
    X884 FAC10 -0.188375
    X885 OBJ -0.0284715
    X885 BUDGET 1
    X885 SEC9 1
    X885 FAC5 -0.0443692
    X885 FAC9 -0.288257
    X885 FAC10 -0.0997874
    X886 OBJ -0.09736
    X886 BUDGET 1
    X886 SEC10 1
    X886 FAC1 0.24456
    X886 FAC2 -0.0480162
    X887 OBJ -0.0519651
    X887 BUDGET 1
    X887 SEC11 1
    X887 FAC0 0.159299
    X887 FAC2 0.365983
    X887 FAC5 0.124398
    X887 FAC6 -0.2346
    X887 FAC8 0.273626
    X887 FAC9 -0.457215
    X888 OBJ -0.0732805
    X888 BUDGET 1
    X888 SEC0 1
    X888 FAC0 0.0257297
    X888 FAC1 -0.00240856
    X888 FAC6 0.492538
    X888 FAC8 0.434248
    X888 FAC9 0.332902
    X888 FAC13 -0.0706054
    X889 OBJ -0.109012
    X889 BUDGET 1
    X889 SEC1 1
    X889 FAC0 0.19839
    X889 FAC5 -0.177486
    X889 FAC8 0.333689
    X889 FAC12 0.192771
    X889 FAC14 0.423031
    X890 OBJ -0.121764
    X890 BUDGET 1
    X890 SEC2 1
    X890 FAC0 0.46585
    X890 FAC1 0.618275
    X890 FAC5 0.161906
    X890 FAC7 0.178983
    X890 FAC8 0.0939379
    X890 FAC12 0.45807
    X891 OBJ -0.0351672
    X891 BUDGET 1
    X891 SEC3 1
    X891 FAC0 -0.631556
    X891 FAC11 -0.0968358
    X892 OBJ -0.080657
    X892 BUDGET 1
    X892 SEC4 1
    X892 FAC0 -0.0489916
    X892 FAC5 -0.354073
    X892 FAC10 0.154057
    X892 FAC11 0.147368
    X893 OBJ -0.0600746
    X893 BUDGET 1
    X893 SEC5 1
    X893 FAC2 0.448319
    X893 FAC5 -0.250498
    X893 FAC6 -0.231646
    X893 FAC8 0.15729
    X893 FAC9 -0.024052
    X893 FAC11 0.556093
    X893 FAC13 0.0260156
    X894 OBJ -0.115108
    X894 BUDGET 1
    X894 SEC6 1
    X894 FAC2 -0.381422
    X894 FAC4 -0.0845401
    X894 FAC7 -0.121055
    X894 FAC8 -0.326478
    X894 FAC9 0.0983611
    X894 FAC12 0.13889
    X894 FAC13 -0.27475
    X895 OBJ -0.0610008
    X895 BUDGET 1
    X895 SEC7 1
    X895 FAC3 -0.201784
    X895 FAC7 0.154866
    X895 FAC9 0.0550426
    X895 FAC10 0.348499
    X896 OBJ -0.0471763
    X896 BUDGET 1
    X896 SEC8 1
    X896 FAC1 0.0311473
    X896 FAC3 0.426857
    X896 FAC4 0.189162
    X896 FAC5 0.410283
    X896 FAC6 0.00813266
    X896 FAC10 0.178766
    X896 FAC11 0.154246
    X896 FAC12 -0.243644
    X896 FAC13 0.730989
    X897 OBJ -0.0407602
    X897 BUDGET 1
    X897 SEC9 1
    X897 FAC2 -0.0318573
    X897 FAC4 -0.482837
    X897 FAC5 -0.555793
    X897 FAC10 0.445617
    X898 OBJ -0.0890391
    X898 BUDGET 1
    X898 SEC10 1
    X898 FAC4 0.323603
    X899 OBJ -0.108703
    X899 BUDGET 1
    X899 SEC11 1
    X899 FAC1 -0.0715459
    X899 FAC2 0.264659
    X899 FAC9 -0.32821
    X899 FAC11 -0.103756
    X899 FAC13 0.0395109
    X900 OBJ -0.0309135
    X900 BUDGET 1
    X900 SEC0 1
    X900 FAC1 -0.614772
    X900 FAC7 -0.0341295
    X900 FAC8 0.106326
    X900 FAC12 0.228986
    X901 OBJ -0.0874054
    X901 BUDGET 1
    X901 SEC1 1
    X901 FAC0 0.399479
    X901 FAC1 0.108632
    X901 FAC6 -0.214158
    X901 FAC13 0.117059
    X901 FAC14 -0.300299
    X902 OBJ -0.0563894
    X902 BUDGET 1
    X902 SEC2 1
    X902 FAC2 -0.200612
    X902 FAC7 0.17592
    X902 FAC10 -0.644179
    X902 FAC11 -0.128339
    X902 FAC13 0.0684441
    X902 FAC14 0.600965
    X903 OBJ -0.0218751
    X903 BUDGET 1
    X903 SEC3 1
    X903 FAC0 -0.0902188
    X903 FAC6 -0.072654
    X903 FAC11 -0.576673
    X903 FAC13 -0.0326283
    X903 FAC14 -0.276022
    X904 OBJ -0.085085
    X904 BUDGET 1
    X904 SEC4 1
    X904 FAC14 -0.254352
    X905 OBJ -0.129846
    X905 BUDGET 1
    X905 SEC5 1
    X905 FAC2 0.367965
    X905 FAC9 0.109285
    X906 OBJ -0.133389
    X906 BUDGET 1
    X906 SEC6 1
    X906 FAC1 -0.350059
    X906 FAC2 -0.133852
    X906 FAC3 0.0212965
    X906 FAC6 0.811167
    X906 FAC7 -0.534953
    X906 FAC9 0.63167
    X907 OBJ -0.0359558
    X907 BUDGET 1
    X907 SEC7 1
    X907 FAC1 -0.322418
    X907 FAC2 -0.257612
    X907 FAC4 -0.366572
    X907 FAC9 -0.14603
    X907 FAC10 -0.033759
    X907 FAC13 -0.218553
    X908 OBJ -0.070061
    X908 BUDGET 1
    X908 SEC8 1
    X908 FAC2 0.421533
    X908 FAC7 0.151693
    X908 FAC13 0.320954
    X909 OBJ -0.122305
    X909 BUDGET 1
    X909 SEC9 1
    X909 FAC0 -0.197386
    X909 FAC3 0.355357
    X909 FAC9 0.115881
    X910 OBJ -0.0875327
    X910 BUDGET 1
    X910 SEC10 1
    X910 FAC0 0.00601866
    X910 FAC3 0.153262
    X910 FAC6 -0.334978
    X910 FAC9 -0.141128
    X910 FAC10 -0.0764266
    X910 FAC12 -0.289099
    X910 FAC13 -0.0221744
    X910 FAC14 -0.159496
    X911 OBJ -0.0573359
    X911 BUDGET 1
    X911 SEC11 1
    X911 FAC3 0.372445
    X911 FAC10 -0.345952
    X911 FAC13 0.264018
    X911 FAC14 -0.278815
    X912 OBJ -0.13675
    X912 BUDGET 1
    X912 SEC0 1
    X912 FAC6 0.185257
    X912 FAC11 -0.244787
    X913 OBJ -0.0863996
    X913 BUDGET 1
    X913 SEC1 1
    X913 FAC1 0.0363048
    X913 FAC7 -0.0761045
    X913 FAC11 0.106833
    X913 FAC14 0.0706574
    X914 OBJ -0.105396
    X914 BUDGET 1
    X914 SEC2 1
    X914 FAC1 -0.148303
    X914 FAC4 0.224077
    X914 FAC6 -0.349741
    X914 FAC7 -0.376673
    X914 FAC9 -0.0994869
    X914 FAC10 0.412223
    X914 FAC11 -0.0908844
    X915 OBJ -0.0690191
    X915 BUDGET 1
    X915 SEC3 1
    X915 FAC4 0.0773557
    X915 FAC6 -0.0758899
    X915 FAC10 -0.0911215
    X915 FAC11 -0.295578
    X915 FAC13 -0.433334
    X915 FAC14 0.138793
    X916 OBJ -0.0957382
    X916 BUDGET 1
    X916 SEC4 1
    X916 FAC0 -0.136574
    X916 FAC4 0.0932839
    X916 FAC5 0.212281
    X916 FAC6 0.0876759
    X916 FAC10 0.109574
    X916 FAC11 0.14043
    X916 FAC12 0.26364
    X916 FAC13 -0.226459
    X916 FAC14 -0.0641174
    X917 OBJ -0.124857
    X917 BUDGET 1
    X917 SEC5 1
    X917 FAC2 0.129031
    X917 FAC4 -0.697893
    X917 FAC13 0.171477
    X917 FAC14 0.0360007
    X918 OBJ -0.0263565
    X918 BUDGET 1
    X918 SEC6 1
    X918 FAC1 0.121319
    X918 FAC5 0.143213
    X918 FAC7 0.258617
    X919 OBJ -0.0471496
    X919 BUDGET 1
    X919 SEC7 1
    X919 FAC2 0.612998
    X919 FAC4 -0.283623
    X919 FAC6 0.414298
    X919 FAC7 -0.528463
    X919 FAC8 0.124586
    X919 FAC9 -0.171932
    X919 FAC12 0.0680044
    X919 FAC14 0.371857
    X920 OBJ -0.149891
    X920 BUDGET 1
    X920 SEC8 1
    X920 FAC2 0.326598
    X920 FAC7 -0.387563
    X921 OBJ -0.091851
    X921 BUDGET 1
    X921 SEC9 1
    X921 FAC3 -0.295014
    X921 FAC4 0.144296
    X921 FAC6 0.0733934
    X921 FAC12 0.0688282
    X922 OBJ -0.140349
    X922 BUDGET 1
    X922 SEC10 1
    X922 FAC2 0.20566
    X922 FAC12 -0.438983
    X922 FAC14 0.114553
    X923 OBJ -0.116138
    X923 BUDGET 1
    X923 SEC11 1
    X923 FAC0 -0.0353843
    X923 FAC3 -0.101876
    X923 FAC6 -0.239071
    X923 FAC7 -0.0811255
    X923 FAC8 0.0481571
    X923 FAC9 0.430128
    X923 FAC13 -0.0115507
    X923 FAC14 0.107758
    X924 OBJ -0.111784
    X924 BUDGET 1
    X924 SEC0 1
    X924 FAC0 0.0759504
    X924 FAC4 0.242718
    X924 FAC6 -0.0521281
    X924 FAC11 -0.315179
    X925 OBJ -0.0888077
    X925 BUDGET 1
    X925 SEC1 1
    X925 FAC0 -0.034328
    X925 FAC1 0.397066
    X925 FAC4 -0.225672
    X925 FAC5 -0.00933123
    X925 FAC6 -0.20574
    X925 FAC7 -0.260113
    X926 OBJ -0.0298687
    X926 BUDGET 1
    X926 SEC2 1
    X926 FAC6 0.0354188
    X926 FAC7 -0.220347
    X926 FAC8 -0.337827
    X926 FAC9 0.0940103
    X926 FAC10 0.629877
    X927 OBJ -0.129972
    X927 BUDGET 1
    X927 SEC3 1
    X927 FAC3 0.102891
    X927 FAC5 0.0242761
    X927 FAC7 -0.081906
    X927 FAC8 0.178123
    X927 FAC9 0.175063
    X927 FAC10 0.361003
    X927 FAC12 -0.0567924
    X927 FAC14 -0.127625
    X928 OBJ -0.104025
    X928 BUDGET 1
    X928 SEC4 1
    X928 FAC0 -0.068894
    X928 FAC2 0.535788
    X928 FAC3 0.425576
    X928 FAC5 0.62749
    X928 FAC7 -0.0898879
    X928 FAC10 -0.289977
    X928 FAC14 0.0865691
    X929 OBJ -0.0877032
    X929 BUDGET 1
    X929 SEC5 1
    X929 FAC0 -0.495942
    X929 FAC2 0.432004
    X929 FAC4 -0.0572309
    X929 FAC7 -0.139482
    X929 FAC9 -0.15769
    X929 FAC10 0.50123
    X929 FAC13 -0.184164
    X929 FAC14 0.332533
    X930 OBJ -0.0859053
    X930 BUDGET 1
    X930 SEC6 1
    X930 FAC12 0.145853
    X931 OBJ -0.0676897
    X931 BUDGET 1
    X931 SEC7 1
    X931 FAC0 0.0155929
    X931 FAC3 0.06192
    X931 FAC7 -0.157965
    X932 OBJ -0.133695
    X932 BUDGET 1
    X932 SEC8 1
    X932 FAC0 -0.219815
    X932 FAC1 0.160808
    X932 FAC4 -0.435184
    X932 FAC9 -0.215653
    X933 OBJ -0.11672
    X933 BUDGET 1
    X933 SEC9 1
    X933 FAC0 0.471708
    X933 FAC1 -0.269663
    X933 FAC5 0.570788
    X933 FAC7 -0.0527805
    X933 FAC8 0.112012
    X933 FAC9 0.253828
    X933 FAC12 0.0517771
    X933 FAC14 0.371475
    X934 OBJ -0.0223223
    X934 BUDGET 1
    X934 SEC10 1
    X934 FAC3 -0.164199
    X934 FAC8 -0.314563
    X934 FAC9 -0.283679
    X934 FAC11 0.407857
    X935 OBJ -0.119078
    X935 BUDGET 1
    X935 SEC11 1
    X935 FAC1 -0.146159
    X935 FAC2 -0.0222718
    X935 FAC5 -0.0683034
    X935 FAC9 0.346861
    X935 FAC11 0.614219
    X936 OBJ -0.0567051
    X936 BUDGET 1
    X936 SEC0 1
    X936 FAC2 0.229325
    X936 FAC4 -0.445024
    X936 FAC7 0.626493
    X936 FAC11 0.173281
    X936 FAC14 0.046159
    X937 OBJ -0.0227028
    X937 BUDGET 1
    X937 SEC1 1
    X937 FAC1 -0.0363836
    X937 FAC2 0.192851
    X937 FAC12 0.336275
    X938 OBJ -0.0670237
    X938 BUDGET 1
    X938 SEC2 1
    X938 FAC1 -0.378802
    X938 FAC3 0.0692397
    X938 FAC6 0.18294
    X938 FAC10 -0.0664053
    X939 OBJ -0.0489815
    X939 BUDGET 1
    X939 SEC3 1
    X939 FAC0 0.0638651
    X939 FAC2 0.0953238
    X939 FAC10 0.427642
    X939 FAC12 0.123532
    X939 FAC13 -0.180351
    X939 FAC14 -0.0358929
    X940 OBJ -0.0598802
    X940 BUDGET 1
    X940 SEC4 1
    X940 FAC2 -0.513518
    X940 FAC4 0.267827
    X940 FAC6 -0.287475
    X941 OBJ -0.0434449
    X941 BUDGET 1
    X941 SEC5 1
    X941 FAC0 -0.294547
    X941 FAC3 -0.12473
    X941 FAC4 0.117164
    X942 OBJ -0.0865965
    X942 BUDGET 1
    X942 SEC6 1
    X942 FAC6 0.238546
    X942 FAC8 -0.20036
    X942 FAC9 -0.0698355
    X942 FAC13 -0.0306817
    X943 OBJ -0.0425288
    X943 BUDGET 1
    X943 SEC7 1
    X943 FAC2 -0.0252616
    X943 FAC7 -0.215623
    X943 FAC8 0.0875764
    X943 FAC9 -0.0988572
    X943 FAC12 0.493648
    X944 OBJ -0.126331
    X944 BUDGET 1
    X944 SEC8 1
    X944 FAC2 -0.295008
    X944 FAC7 -0.360518
    X944 FAC10 -0.628667
    X944 FAC11 0.674568
    X945 OBJ -0.129742
    X945 BUDGET 1
    X945 SEC9 1
    X945 FAC7 0.348733
    X945 FAC9 0.0769804
    X946 OBJ -0.0982677
    X946 BUDGET 1
    X946 SEC10 1
    X946 FAC2 -0.0486347
    X946 FAC3 -0.38527
    X946 FAC4 -0.0939444
    X946 FAC5 -0.249991
    X946 FAC7 0.172229
    X946 FAC12 -0.632776
    X947 OBJ -0.0878741
    X947 BUDGET 1
    X947 SEC11 1
    X947 FAC0 -0.0776138
    X947 FAC1 0.0402893
    X947 FAC7 0.158702
    X947 FAC10 0.166389
    X947 FAC14 -0.0193435
    X948 OBJ -0.0866976
    X948 BUDGET 1
    X948 SEC0 1
    X948 FAC3 -0.0149446
    X948 FAC4 0.4501
    X948 FAC7 -0.168153
    X948 FAC8 -0.257345
    X948 FAC11 0.628559
    X949 OBJ -0.0357167
    X949 BUDGET 1
    X949 SEC1 1
    X949 FAC3 0.0824588
    X949 FAC7 -0.106786
    X949 FAC8 0.41103
    X950 OBJ -0.100039
    X950 BUDGET 1
    X950 SEC2 1
    X950 FAC1 0.236775
    X950 FAC5 0.113484
    X950 FAC7 0.0533822
    X950 FAC14 0.200047
    X951 OBJ -0.038696
    X951 BUDGET 1
    X951 SEC3 1
    X951 FAC2 0.0179947
    X951 FAC5 -0.146669
    X952 OBJ -0.094835
    X952 BUDGET 1
    X952 SEC4 1
    X952 FAC2 0.221075
    X952 FAC3 -0.0604984
    X952 FAC5 -0.345791
    X952 FAC6 0.0750884
    X952 FAC8 0.244928
    X952 FAC9 0.0851601
    X952 FAC10 0.581952
    X952 FAC11 -0.329287
    X953 OBJ -0.0866615
    X953 BUDGET 1
    X953 SEC5 1
    X953 FAC6 0.615691
    X953 FAC7 0.0723509
    X953 FAC8 -0.228362
    X954 OBJ -0.051968
    X954 BUDGET 1
    X954 SEC6 1
    X954 FAC1 -0.00982736
    X954 FAC7 -0.782731
    X954 FAC10 0.312917
    X955 OBJ -0.148376
    X955 BUDGET 1
    X955 SEC7 1
    X955 FAC0 0.223126
    X955 FAC10 -0.347428
    X955 FAC12 0.238868
    X956 OBJ -0.0854486
    X956 BUDGET 1
    X956 SEC8 1
    X956 FAC5 0.151769
    X956 FAC8 -0.0487767
    X956 FAC9 0.277469
    X957 OBJ -0.130574
    X957 BUDGET 1
    X957 SEC9 1
    X957 FAC0 -0.372628
    X957 FAC4 -0.221878
    X957 FAC9 -0.101352
    X958 OBJ -0.0989279
    X958 BUDGET 1
    X958 SEC10 1
    X958 FAC0 0.289216
    X958 FAC1 0.242024
    X958 FAC5 -0.415488
    X958 FAC13 -0.406454
    X959 OBJ -0.096067
    X959 BUDGET 1
    X959 SEC11 1
    X959 FAC3 0.0163159
    X959 FAC4 0.198021
    X959 FAC11 -0.176232
    X959 FAC12 0.181138
    X960 OBJ -0.0673392
    X960 BUDGET 1
    X960 SEC0 1
    X960 FAC1 0.490423
    X960 FAC5 0.19815
    X961 OBJ -0.148065
    X961 BUDGET 1
    X961 SEC1 1
    X961 FAC3 0.14789
    X961 FAC4 0.547774
    X961 FAC12 0.270871
    X962 OBJ -0.0322863
    X962 BUDGET 1
    X962 SEC2 1
    X962 FAC2 0.594019
    X962 FAC4 0.144885
    X962 FAC8 -0.315378
    X962 FAC11 0.215088
    X962 FAC13 0.154884
    X963 OBJ -0.118653
    X963 BUDGET 1
    X963 SEC3 1
    X963 FAC0 -0.488332
    X963 FAC1 -0.110092
    X963 FAC4 0.0722282
    X963 FAC12 0.345567
    X963 FAC13 0.229293
    X964 OBJ -0.071154
    X964 BUDGET 1
    X964 SEC4 1
    X964 FAC1 0.0416088
    X964 FAC10 -0.059249
    X965 OBJ -0.0352332
    X965 BUDGET 1
    X965 SEC5 1
    X965 FAC4 0.413375
    X965 FAC6 -0.14413
    X965 FAC9 0.500175
    X965 FAC12 -0.487204
    X965 FAC13 -0.192912
    X966 OBJ -0.109143
    X966 BUDGET 1
    X966 SEC6 1
    X966 FAC0 -0.0675951
    X966 FAC1 -0.487551
    X966 FAC3 0.137197
    X966 FAC4 -0.208489
    X966 FAC5 0.464867
    X966 FAC8 -0.175343
    X966 FAC13 0.0310209
    X966 FAC14 0.236183
    X967 OBJ -0.130816
    X967 BUDGET 1
    X967 SEC7 1
    X967 FAC4 -0.12016
    X967 FAC6 -0.460514
    X967 FAC12 0.221977
    X968 OBJ -0.0309381
    X968 BUDGET 1
    X968 SEC8 1
    X968 FAC3 0.0546768
    X968 FAC6 -0.165174
    X968 FAC8 -0.0227072
    X968 FAC13 0.104481
    X969 OBJ -0.0234614
    X969 BUDGET 1
    X969 SEC9 1
    X969 FAC0 -0.19702
    X969 FAC11 -0.235729
    X969 FAC12 -0.106076
    X969 FAC14 -0.31809
    X970 OBJ -0.133907
    X970 BUDGET 1
    X970 SEC10 1
    X970 FAC5 -0.309289
    X970 FAC6 0.0597601
    X970 FAC10 -0.36134
    X970 FAC11 -0.164347
    X971 OBJ -0.13402
    X971 BUDGET 1
    X971 SEC11 1
    X971 FAC1 0.493524
    X971 FAC4 -0.0548891
    X971 FAC8 0.17403
    X972 OBJ -0.0894016
    X972 BUDGET 1
    X972 SEC0 1
    X972 FAC3 0.0606971
    X972 FAC11 -0.53462
    X972 FAC12 -0.145967
    X973 OBJ -0.132971
    X973 BUDGET 1
    X973 SEC1 1
    X973 FAC0 -0.191161
    X973 FAC1 -0.26524
    X973 FAC2 0.110379
    X973 FAC5 -0.0656238
    X973 FAC8 -0.20661
    X973 FAC10 -0.0345586
    X973 FAC11 0.0700069
    X973 FAC13 0.326529
    X973 FAC14 0.27403
    X974 OBJ -0.127723
    X974 BUDGET 1
    X974 SEC2 1
    X974 FAC5 -0.236656
    X974 FAC11 -0.236761
    X974 FAC14 -0.0665343
    X975 OBJ -0.0368894
    X975 BUDGET 1
    X975 SEC3 1
    X975 FAC0 0.14077
    X975 FAC4 -0.0292557
    X975 FAC12 0.0677756
    X976 OBJ -0.0385773
    X976 BUDGET 1
    X976 SEC4 1
    X976 FAC0 0.226183
    X976 FAC3 0.233685
    X976 FAC5 0.0195281
    X976 FAC10 0.17604
    X976 FAC11 -0.260908
    X976 FAC13 -0.112597
    X976 FAC14 0.139093
    X977 OBJ -0.113252
    X977 BUDGET 1
    X977 SEC5 1
    X977 FAC5 0.219998
    X977 FAC6 0.0661834
    X977 FAC9 -0.0665172
    X977 FAC10 0.179615
    X977 FAC11 -0.589638
    X977 FAC13 0.218506
    X978 OBJ -0.0393945
    X978 BUDGET 1
    X978 SEC6 1
    X978 FAC3 -0.209081
    X978 FAC6 0.0926889
    X978 FAC11 0.759247
    X978 FAC14 -0.554838
    X979 OBJ -0.0383521
    X979 BUDGET 1
    X979 SEC7 1
    X979 FAC9 -0.416716
    X979 FAC10 0.242571
    X979 FAC14 0.0246327
    X980 OBJ -0.0706174
    X980 BUDGET 1
    X980 SEC8 1
    X980 FAC2 0.233036
    X980 FAC3 -0.335381
    X980 FAC4 0.0884902
    X980 FAC10 -0.323322
    X980 FAC14 0.0706525
    X981 OBJ -0.0647723
    X981 BUDGET 1
    X981 SEC9 1
    X981 FAC2 -0.134034
    X981 FAC9 -0.160138
    X981 FAC13 0.0590982
    X981 FAC14 0.193055
    X982 OBJ -0.137771
    X982 BUDGET 1
    X982 SEC10 1
    X982 FAC0 0.562797
    X982 FAC4 0.132174
    X982 FAC5 0.0279435
    X982 FAC8 0.179296
    X982 FAC13 -0.0633431
    X983 OBJ -0.0734067
    X983 BUDGET 1
    X983 SEC11 1
    X983 FAC2 -0.0824461
    X983 FAC5 -0.194856
    X984 OBJ -0.0648714
    X984 BUDGET 1
    X984 SEC0 1
    X984 FAC3 -0.489145
    X984 FAC7 0.358309
    X984 FAC11 0.268652
    X984 FAC12 0.0187694
    X985 OBJ -0.104581
    X985 BUDGET 1
    X985 SEC1 1
    X985 FAC0 0.0116191
    X985 FAC4 -0.442133
    X985 FAC8 -0.105416
    X985 FAC14 0.174397
    X986 OBJ -0.120518
    X986 BUDGET 1
    X986 SEC2 1
    X986 FAC5 0.466385
    X986 FAC10 0.240285
    X987 OBJ -0.120058
    X987 BUDGET 1
    X987 SEC3 1
    X987 FAC3 -0.145115
    X987 FAC4 0.293965
    X987 FAC5 0.310471
    X987 FAC8 0.0581273
    X987 FAC9 -0.423873
    X987 FAC13 -0.241357
    X988 OBJ -0.0735808
    X988 BUDGET 1
    X988 SEC4 1
    X988 FAC7 -0.0335546
    X988 FAC9 0.302709
    X988 FAC10 -0.0519992
    X989 OBJ -0.0683428
    X989 BUDGET 1
    X989 SEC5 1
    X989 FAC3 0.026019
    X989 FAC6 -0.176968
    X989 FAC9 0.254048
    X989 FAC13 0.138398
    X989 FAC14 -0.106546
    X990 OBJ -0.0865209
    X990 BUDGET 1
    X990 SEC6 1
    X990 FAC10 -0.362264
    X991 OBJ -0.0354835
    X991 BUDGET 1
    X991 SEC7 1
    X991 FAC0 0.117519
    X991 FAC7 -0.189191
    X991 FAC10 0.0456782
    X992 OBJ -0.144218
    X992 BUDGET 1
    X992 SEC8 1
    X992 FAC1 0.0992193
    X992 FAC5 0.20181
    X992 FAC8 0.0742919
    X992 FAC12 0.54664
    X993 OBJ -0.13899
    X993 BUDGET 1
    X993 SEC9 1
    X993 FAC1 -0.319925
    X993 FAC2 -0.330719
    X993 FAC4 -0.329904
    X993 FAC5 0.0179257
    X993 FAC13 -0.292801
    X994 OBJ -0.0201712
    X994 BUDGET 1
    X994 SEC10 1
    X994 FAC1 0.340371
    X994 FAC2 -0.0260861
    X994 FAC7 0.351251
    X994 FAC8 -0.144747
    X994 FAC9 -0.339071
    X995 OBJ -0.0854712
    X995 BUDGET 1
    X995 SEC11 1
    X995 FAC0 -0.48667
    X995 FAC3 -0.40278
    X995 FAC4 0.518401
    X995 FAC9 0.206618
    X996 OBJ -0.0718556
    X996 BUDGET 1
    X996 SEC0 1
    X996 FAC2 0.311706
    X996 FAC5 0.180941
    X996 FAC9 -0.0256277
    X996 FAC10 0.314648
    X996 FAC11 0.0942258
    X997 OBJ -0.0459463
    X997 BUDGET 1
    X997 SEC1 1
    X997 FAC1 0.377666
    X997 FAC6 0.21133
    X997 FAC7 -0.100159
    X997 FAC11 0.26876
    X998 OBJ -0.12336
    X998 BUDGET 1
    X998 SEC2 1
    X998 FAC1 0.0410002
    X998 FAC11 0.466571
    X998 FAC12 0.346092
    X998 FAC14 0.207192
    X999 OBJ -0.0275906
    X999 BUDGET 1
    X999 SEC3 1
    X999 FAC0 -0.184955
    X999 FAC6 -0.0209026
    X999 FAC8 0.114581
    X999 FAC13 0.195833
    X1000 OBJ -0.129677
    X1000 BUDGET 1
    X1000 SEC4 1
    X1000 FAC2 -0.349325
    X1000 FAC3 0.244646
    X1000 FAC8 -0.594978
    X1000 FAC9 0.0164689
    X1000 FAC11 -0.179363
    X1000 FAC12 0.250762
    X1001 OBJ -0.0316672
    X1001 BUDGET 1
    X1001 SEC5 1
    X1001 FAC10 -0.0646959
    X1001 FAC11 0.395196
    X1001 FAC14 -0.470231
    X1002 OBJ -0.0848478
    X1002 BUDGET 1
    X1002 SEC6 1
    X1002 FAC0 0.0249592
    X1002 FAC1 -0.183888
    X1002 FAC4 0.592745
    X1002 FAC8 -0.434374
    X1003 OBJ -0.148258
    X1003 BUDGET 1
    X1003 SEC7 1
    X1003 FAC5 0.0860747
    X1003 FAC7 0.154311
    X1003 FAC11 -0.32943
    X1003 FAC13 -0.0464418
    X1004 OBJ -0.0911717
    X1004 BUDGET 1
    X1004 SEC8 1
    X1004 FAC2 0.0027749
    X1004 FAC7 0.0226988
    X1004 FAC12 -0.149005
    X1005 OBJ -0.110134
    X1005 BUDGET 1
    X1005 SEC9 1
    X1005 FAC0 0.148028
    X1005 FAC5 0.284607
    X1005 FAC8 0.407538
    X1005 FAC9 -0.175472
    X1006 OBJ -0.145991
    X1006 BUDGET 1
    X1006 SEC10 1
    X1006 FAC3 0.144527
    X1006 FAC10 -0.193671
    X1006 FAC12 0.236616
    X1007 OBJ -0.122095
    X1007 BUDGET 1
    X1007 SEC11 1
    X1007 FAC1 0.299445
    X1007 FAC2 0.179191
    X1007 FAC3 -0.214447
    X1007 FAC11 0.0946108
    X1008 OBJ -0.0792788
    X1008 BUDGET 1
    X1008 SEC0 1
    X1008 FAC4 0.450773
    X1009 OBJ -0.0215456
    X1009 BUDGET 1
    X1009 SEC1 1
    X1009 FAC1 -0.219292
    X1009 FAC7 0.21014
    X1009 FAC12 0.243761
    X1009 FAC13 0.0611611
    X1009 FAC14 0.0912235
    X1010 OBJ -0.104057
    X1010 BUDGET 1
    X1010 SEC2 1
    X1010 FAC5 0.0651224
    X1010 FAC8 0.108551
    X1010 FAC11 -0.257963
    X1010 FAC13 -0.191454
    X1011 OBJ -0.128841
    X1011 BUDGET 1
    X1011 SEC3 1
    X1011 FAC0 -0.26937
    X1011 FAC1 -0.0451114
    X1011 FAC3 -0.0221311
    X1011 FAC6 0.720857
    X1011 FAC8 -0.00411906
    X1011 FAC10 0.0288389
    X1011 FAC14 -0.49547
    X1012 OBJ -0.0767953
    X1012 BUDGET 1
    X1012 SEC4 1
    X1012 FAC0 0.0334741
    X1012 FAC1 0.220641
    X1012 FAC9 -0.207351
    X1013 OBJ -0.10932
    X1013 BUDGET 1
    X1013 SEC5 1
    X1013 FAC0 0.144774
    X1013 FAC5 0.322821
    X1013 FAC6 0.279884
    X1013 FAC7 -0.0592848
    X1013 FAC10 0.0445761
    X1013 FAC11 -0.049054
    X1013 FAC12 0.299554
    X1014 OBJ -0.133566
    X1014 BUDGET 1
    X1014 SEC6 1
    X1014 FAC0 -0.0703141
    X1014 FAC3 0.22534
    X1014 FAC5 -0.11166
    X1014 FAC7 -0.579994
    X1014 FAC11 -0.117469
    X1014 FAC14 0.08058
    X1015 OBJ -0.129158
    X1015 BUDGET 1
    X1015 SEC7 1
    X1015 FAC1 0.155899
    X1015 FAC14 0.0522404
    X1016 OBJ -0.111615
    X1016 BUDGET 1
    X1016 SEC8 1
    X1016 FAC1 0.0952224
    X1016 FAC2 0.183155
    X1016 FAC3 -0.540454
    X1016 FAC5 -0.821731
    X1016 FAC10 0.294701
    X1016 FAC12 -0.293047
    X1017 OBJ -0.112719
    X1017 BUDGET 1
    X1017 SEC9 1
    X1017 FAC8 0.0897056
    X1017 FAC11 -0.190221
    X1017 FAC12 0.209419
    X1017 FAC13 0.323823
    X1018 OBJ -0.0602977
    X1018 BUDGET 1
    X1018 SEC10 1
    X1018 FAC0 0.141719
    X1018 FAC1 0.070461
    X1018 FAC2 0.106585
    X1018 FAC7 0.0134981
    X1018 FAC10 0.0372113
    X1019 OBJ -0.057639
    X1019 BUDGET 1
    X1019 SEC11 1
    X1019 FAC3 0.095949
    X1019 FAC5 -0.209244
    X1019 FAC11 0.404595
    X1020 OBJ -0.0692029
    X1020 BUDGET 1
    X1020 SEC0 1
    X1020 FAC0 0.319551
    X1020 FAC10 0.0291001
    X1021 OBJ -0.0535056
    X1021 BUDGET 1
    X1021 SEC1 1
    X1021 FAC3 -0.0594207
    X1021 FAC10 -0.021241
    X1021 FAC11 0.462492
    X1021 FAC12 -0.31643
    X1021 FAC13 -0.0599612
    X1022 OBJ -0.104265
    X1022 BUDGET 1
    X1022 SEC2 1
    X1022 FAC3 -0.309564
    X1022 FAC5 0.122026
    X1022 FAC9 -0.0460717
    X1022 FAC13 -0.350411
    X1023 OBJ -0.106654
    X1023 BUDGET 1
    X1023 SEC3 1
    X1023 FAC0 -0.0566126
    X1023 FAC1 0.172773
    X1023 FAC8 -0.196985
    X1024 OBJ -0.0303166
    X1024 BUDGET 1
    X1024 SEC4 1
    X1024 FAC3 0.0927673
    X1024 FAC11 -0.0715611
    X1024 FAC13 0.0978267
    X1025 OBJ -0.0405655
    X1025 BUDGET 1
    X1025 SEC5 1
    X1025 FAC3 -0.257248
    X1025 FAC5 -0.514417
    X1025 FAC9 -0.873405
    X1025 FAC12 -0.278089
    X1025 FAC13 -0.310029
    X1025 FAC14 -0.00010643
    X1026 OBJ -0.0297795
    X1026 BUDGET 1
    X1026 SEC6 1
    X1026 FAC0 0.282053
    X1026 FAC5 -0.259893
    X1027 OBJ -0.0405401
    X1027 BUDGET 1
    X1027 SEC7 1
    X1027 FAC4 -0.0024097
    X1027 FAC5 -0.0237748
    X1027 FAC6 -0.4037
    X1027 FAC7 -0.0695449
    X1027 FAC12 0.11565
    X1027 FAC14 -0.224373
    X1028 OBJ -0.0771993
    X1028 BUDGET 1
    X1028 SEC8 1
    X1028 FAC3 -0.191995
    X1028 FAC4 -0.304349
    X1028 FAC6 0.0903285
    X1028 FAC9 -0.120332
    X1028 FAC12 0.37848
    X1029 OBJ -0.0900225
    X1029 BUDGET 1
    X1029 SEC9 1
    X1029 FAC0 -0.19606
    X1029 FAC4 -0.0676914
    X1029 FAC6 0.163978
    X1029 FAC8 0.300077
    X1030 OBJ -0.12966
    X1030 BUDGET 1
    X1030 SEC10 1
    X1030 FAC0 0.0169589
    X1030 FAC1 0.00507409
    X1030 FAC2 -0.145528
    X1030 FAC4 0.0833853
    X1030 FAC9 0.162198
    X1031 OBJ -0.148605
    X1031 BUDGET 1
    X1031 SEC11 1
    X1031 FAC0 -0.368279
    X1031 FAC2 0.580004
    X1031 FAC10 0.276507
    X1031 FAC14 0.265947
    X1032 OBJ -0.11115
    X1032 BUDGET 1
    X1032 SEC0 1
    X1032 FAC3 -0.0725113
    X1032 FAC6 -0.39886
    X1032 FAC7 0.0462338
    X1032 FAC8 0.738632
    X1032 FAC9 0.417132
    X1032 FAC10 0.083763
    X1032 FAC12 0.410377
    X1033 OBJ -0.13909
    X1033 BUDGET 1
    X1033 SEC1 1
    X1033 FAC6 -0.239225
    X1033 FAC7 0.197772
    X1034 OBJ -0.0380382
    X1034 BUDGET 1
    X1034 SEC2 1
    X1034 FAC0 -0.249523
    X1034 FAC1 -0.200511
    X1034 FAC3 -0.0529805
    X1034 FAC5 0.598525
    X1034 FAC9 -0.0834958
    X1034 FAC10 0.310702
    X1034 FAC11 -0.0871201
    X1035 OBJ -0.124759
    X1035 BUDGET 1
    X1035 SEC3 1
    X1035 FAC1 -0.345482
    X1035 FAC5 -0.296975
    X1035 FAC7 0.211763
    X1035 FAC8 0.189154
    X1036 OBJ -0.143831
    X1036 BUDGET 1
    X1036 SEC4 1
    X1036 FAC1 0.123365
    X1036 FAC4 0.102495
    X1036 FAC5 -0.230377
    X1036 FAC6 -0.361384
    X1036 FAC7 0.186083
    X1036 FAC10 0.0403684
    X1037 OBJ -0.0490221
    X1037 BUDGET 1
    X1037 SEC5 1
    X1037 FAC1 -0.348671
    X1037 FAC2 -0.0140866
    X1037 FAC4 0.769457
    X1037 FAC10 0.296459
    X1037 FAC12 -0.197321
    X1038 OBJ -0.0696305
    X1038 BUDGET 1
    X1038 SEC6 1
    X1038 FAC0 0.0353008
    X1038 FAC7 -0.0620589
    X1038 FAC8 -0.244481
    X1038 FAC11 0.476843
    X1038 FAC13 0.121512
    X1039 OBJ -0.0291524
    X1039 BUDGET 1
    X1039 SEC7 1
    X1039 FAC1 -0.0419993
    X1039 FAC6 0.357769
    X1039 FAC7 -0.145511
    X1039 FAC11 0.227801
    X1039 FAC13 -0.179036
    X1040 OBJ -0.0514702
    X1040 BUDGET 1
    X1040 SEC8 1
    X1040 FAC5 0.1965
    X1040 FAC9 -0.198636
    X1040 FAC12 -0.251021
    X1040 FAC13 -0.119436
    X1041 OBJ -0.120699
    X1041 BUDGET 1
    X1041 SEC9 1
    X1041 FAC7 0.172135
    X1041 FAC9 -0.276897
    X1041 FAC10 0.115684
    X1041 FAC12 0.0466528
    X1042 OBJ -0.110263
    X1042 BUDGET 1
    X1042 SEC10 1
    X1042 FAC3 -0.122842
    X1042 FAC5 0.301636
    X1042 FAC6 -0.090857
    X1042 FAC7 -0.194282
    X1042 FAC10 0.663288
    X1042 FAC14 -0.103138
    X1043 OBJ -0.132156
    X1043 BUDGET 1
    X1043 SEC11 1
    X1043 FAC3 -0.02936
    X1043 FAC7 -0.153633
    X1043 FAC9 -0.341639
    X1043 FAC12 0.268425
    X1044 OBJ -0.0513885
    X1044 BUDGET 1
    X1044 SEC0 1
    X1044 FAC6 0.417168
    X1044 FAC8 -0.260417
    X1044 FAC11 0.361212
    X1044 FAC12 0.00230121
    X1045 OBJ -0.0505128
    X1045 BUDGET 1
    X1045 SEC1 1
    X1045 FAC0 0.913355
    X1045 FAC2 0.23527
    X1045 FAC4 -0.102021
    X1045 FAC5 -0.0925276
    X1045 FAC10 0.168174
    X1045 FAC11 0.203052
    X1045 FAC12 -0.395153
    X1045 FAC14 0.293913
    X1046 OBJ -0.145157
    X1046 BUDGET 1
    X1046 SEC2 1
    X1046 FAC7 -0.578796
    X1046 FAC12 0.0812053
    X1046 FAC13 0.00652712
    X1047 OBJ -0.102533
    X1047 BUDGET 1
    X1047 SEC3 1
    X1047 FAC0 -0.253988
    X1047 FAC2 -0.0478115
    X1047 FAC6 0.222433
    X1047 FAC8 -0.178741
    X1047 FAC11 0.340433
    X1048 OBJ -0.0956909
    X1048 BUDGET 1
    X1048 SEC4 1
    X1048 FAC1 -0.0246211
    X1048 FAC2 -0.183125
    X1048 FAC4 0.124072
    X1048 FAC5 0.263907
    X1048 FAC6 0.044828
    X1048 FAC8 0.262014
    X1048 FAC12 -0.203
    X1049 OBJ -0.034193
    X1049 BUDGET 1
    X1049 SEC5 1
    X1049 FAC4 0.0800221
    X1049 FAC7 -0.0508526
    X1049 FAC8 0.148282
    X1049 FAC9 -0.284675
    X1049 FAC10 -0.540778
    X1049 FAC11 -0.0320436
    X1049 FAC12 0.251131
    X1049 FAC13 0.114654
    X1050 OBJ -0.0201341
    X1050 BUDGET 1
    X1050 SEC6 1
    X1050 FAC1 0.0900139
    X1050 FAC2 -0.0180622
    X1050 FAC3 0.064311
    X1050 FAC5 0.434877
    X1050 FAC10 -0.17632
    X1051 OBJ -0.133977
    X1051 BUDGET 1
    X1051 SEC7 1
    X1051 FAC1 0.462785
    X1051 FAC3 -0.534598
    X1051 FAC4 -0.213066
    X1051 FAC6 0.323433
    X1051 FAC7 -0.00170825
    X1051 FAC8 -0.349174
    X1051 FAC14 -0.101562
    X1052 OBJ -0.0984749
    X1052 BUDGET 1
    X1052 SEC8 1
    X1052 FAC0 0.181081
    X1052 FAC5 -0.0764718
    X1052 FAC7 -0.200611
    X1053 OBJ -0.0308439
    X1053 BUDGET 1
    X1053 SEC9 1
    X1053 FAC2 0.14827
    X1053 FAC8 -0.569853
    X1053 FAC10 0.333763
    X1054 OBJ -0.0390551
    X1054 BUDGET 1
    X1054 SEC10 1
    X1054 FAC3 0.0784037
    X1054 FAC5 -0.181125
    X1054 FAC6 -0.0274263
    X1054 FAC7 0.411767
    X1055 OBJ -0.0920657
    X1055 BUDGET 1
    X1055 SEC11 1
    X1055 FAC5 -0.27841
    X1055 FAC7 0.148793
    X1055 FAC10 -0.68217
    X1055 FAC12 -0.0845105
    X1055 FAC13 -0.422201
    X1055 FAC14 0.147413
    X1056 OBJ -0.102124
    X1056 BUDGET 1
    X1056 SEC0 1
    X1056 FAC2 0.240194
    X1056 FAC6 0.0752056
    X1057 OBJ -0.0998064
    X1057 BUDGET 1
    X1057 SEC1 1
    X1057 FAC1 -0.0990664
    X1057 FAC4 0.346116
    X1057 FAC11 0.21546
    X1058 OBJ -0.0692615
    X1058 BUDGET 1
    X1058 SEC2 1
    X1058 FAC2 -0.145985
    X1058 FAC7 0.369832
    X1058 FAC13 0.188376
    X1059 OBJ -0.0411827
    X1059 BUDGET 1
    X1059 SEC3 1
    X1059 FAC0 -0.240622
    X1059 FAC1 -0.40111
    X1059 FAC6 0.428648
    X1059 FAC7 0.722206
    X1059 FAC10 0.268943
    X1060 OBJ -0.0813592
    X1060 BUDGET 1
    X1060 SEC4 1
    X1060 FAC1 -0.722763
    X1060 FAC5 0.085577
    X1060 FAC6 0.420171
    X1060 FAC7 0.369324
    X1061 OBJ -0.064249
    X1061 BUDGET 1
    X1061 SEC5 1
    X1061 FAC2 0.135363
    X1061 FAC3 0.132142
    X1061 FAC7 0.0364344
    X1061 FAC10 0.0880324
    X1061 FAC13 0.0899491
    X1062 OBJ -0.111053
    X1062 BUDGET 1
    X1062 SEC6 1
    X1062 FAC6 -0.510712
    X1062 FAC7 -0.241013
    X1062 FAC12 -0.182392
    X1063 OBJ -0.134954
    X1063 BUDGET 1
    X1063 SEC7 1
    X1063 FAC0 0.120986
    X1063 FAC1 0.0107199
    X1063 FAC4 -0.0230897
    X1063 FAC6 0.0394603
    X1063 FAC9 0.169538
    X1063 FAC12 -0.0395534
    X1063 FAC14 -0.104408
    X1064 OBJ -0.141315
    X1064 BUDGET 1
    X1064 SEC8 1
    X1064 FAC0 -0.149578
    X1064 FAC4 0.0853743
    X1064 FAC13 -0.144299
    X1064 FAC14 -0.467227
    X1065 OBJ -0.075155
    X1065 BUDGET 1
    X1065 SEC9 1
    X1065 FAC5 -0.964356
    X1065 FAC11 -0.184868
    X1066 OBJ -0.112418
    X1066 BUDGET 1
    X1066 SEC10 1
    X1066 FAC0 0.226264
    X1066 FAC4 -0.105803
    X1066 FAC6 -0.0280301
    X1066 FAC8 -0.334744
    X1066 FAC11 -0.255216
    X1066 FAC14 -0.512437
    X1067 OBJ -0.0980579
    X1067 BUDGET 1
    X1067 SEC11 1
    X1067 FAC1 0.262447
    X1067 FAC2 -0.580708
    X1067 FAC8 -0.252519
    X1067 FAC10 0.198271
    X1067 FAC13 -0.218567
    X1068 OBJ -0.0498053
    X1068 BUDGET 1
    X1068 SEC0 1
    X1068 FAC1 0.204974
    X1068 FAC3 0.113426
    X1068 FAC11 -0.324857
    X1069 OBJ -0.0884801
    X1069 BUDGET 1
    X1069 SEC1 1
    X1069 FAC1 -0.15043
    X1069 FAC3 0.322596
    X1069 FAC11 0.0406833
    X1069 FAC13 -0.297474
    X1070 OBJ -0.0759631
    X1070 BUDGET 1
    X1070 SEC2 1
    X1070 FAC1 0.124162
    X1070 FAC7 -0.348794
    X1070 FAC8 0.34732
    X1070 FAC11 0.333994
    X1071 OBJ -0.0303057
    X1071 BUDGET 1
    X1071 SEC3 1
    X1071 FAC0 0.177304
    X1071 FAC2 0.160984
    X1071 FAC6 0.0935535
    X1071 FAC9 -0.334728
    X1071 FAC10 0.0190483
    X1072 OBJ -0.112022
    X1072 BUDGET 1
    X1072 SEC4 1
    X1072 FAC9 0.0546469
    X1073 OBJ -0.0565905
    X1073 BUDGET 1
    X1073 SEC5 1
    X1073 FAC3 -0.30132
    X1073 FAC13 -0.589858
    X1073 FAC14 0.411337
    X1074 OBJ -0.108011
    X1074 BUDGET 1
    X1074 SEC6 1
    X1074 FAC1 -0.21707
    X1074 FAC3 0.189002
    X1074 FAC4 -0.237236
    X1074 FAC6 0.0792506
    X1074 FAC10 0.267473
    X1074 FAC11 0.215136
    X1074 FAC13 0.0188774
    X1075 OBJ -0.136732
    X1075 BUDGET 1
    X1075 SEC7 1
    X1075 FAC1 -0.120529
    X1075 FAC3 0.218351
    X1075 FAC6 0.454237
    X1075 FAC13 -0.0758607
    X1076 OBJ -0.070207
    X1076 BUDGET 1
    X1076 SEC8 1
    X1076 FAC2 0.341882
    X1076 FAC3 0.312881
    X1076 FAC4 0.100784
    X1076 FAC8 0.592627
    X1076 FAC9 -0.184904
    X1076 FAC10 -0.113523
    X1077 OBJ -0.148126
    X1077 BUDGET 1
    X1077 SEC9 1
    X1077 FAC1 -0.30071
    X1077 FAC2 0.120635
    X1077 FAC5 0.706383
    X1077 FAC11 0.332016
    X1077 FAC12 -0.0589004
    X1077 FAC13 0.200707
    X1078 OBJ -0.134854
    X1078 BUDGET 1
    X1078 SEC10 1
    X1078 FAC6 0.264088
    X1078 FAC8 0.0513672
    X1078 FAC12 -0.189837
    X1078 FAC13 -0.147106
    X1079 OBJ -0.0382659
    X1079 BUDGET 1
    X1079 SEC11 1
    X1079 FAC0 0.0638338
    X1079 FAC3 -0.101915
    X1079 FAC5 0.3131
    X1079 FAC6 0.0322091
    X1079 FAC9 -0.0825108
    X1079 FAC11 -0.106453
    X1079 FAC13 0.402888
    X1080 OBJ -0.142471
    X1080 BUDGET 1
    X1080 SEC0 1
    X1080 FAC1 0.0252474
    X1080 FAC5 -0.66724
    X1080 FAC9 0.210317
    X1080 FAC13 0.229604
    X1081 OBJ -0.031828
    X1081 BUDGET 1
    X1081 SEC1 1
    X1081 FAC3 0.218718
    X1081 FAC5 -0.132231
    X1081 FAC6 0.00243166
    X1081 FAC7 -0.403894
    X1081 FAC8 0.138242
    X1081 FAC13 -0.189406
    X1082 OBJ -0.133366
    X1082 BUDGET 1
    X1082 SEC2 1
    X1082 FAC4 -0.448466
    X1082 FAC8 0.534452
    X1082 FAC9 0.317594
    X1082 FAC11 -0.23973
    X1083 OBJ -0.0983832
    X1083 BUDGET 1
    X1083 SEC3 1
    X1083 FAC5 0.0326104
    X1083 FAC7 0.233078
    X1083 FAC10 0.260357
    X1083 FAC11 0.606503
    X1083 FAC12 -0.0451626
    X1083 FAC14 -0.221176
    X1084 OBJ -0.122849
    X1084 BUDGET 1
    X1084 SEC4 1
    X1084 FAC0 0.12879
    X1084 FAC3 0.187323
    X1084 FAC4 0.0468625
    X1084 FAC6 -0.469694
    X1084 FAC8 -0.217529
    X1084 FAC9 0.259994
    X1085 OBJ -0.142918
    X1085 BUDGET 1
    X1085 SEC5 1
    X1085 FAC3 0.273756
    X1085 FAC7 -0.125775
    X1085 FAC8 -0.431491
    X1085 FAC9 -0.00952791
    X1085 FAC12 0.476265
    X1085 FAC13 -0.379265
    X1086 OBJ -0.0894965
    X1086 BUDGET 1
    X1086 SEC6 1
    X1086 FAC1 0.170497
    X1086 FAC3 0.0546622
    X1086 FAC4 0.462412
    X1086 FAC6 0.162949
    X1086 FAC10 -0.000911803
    X1086 FAC13 0.0633044
    X1087 OBJ -0.116139
    X1087 BUDGET 1
    X1087 SEC7 1
    X1087 FAC3 -0.248953
    X1087 FAC6 -0.000513255
    X1087 FAC7 0.125471
    X1087 FAC8 0.333047
    X1087 FAC14 -0.122141
    X1088 OBJ -0.0404566
    X1088 BUDGET 1
    X1088 SEC8 1
    X1088 FAC3 -0.616593
    X1088 FAC7 0.076784
    X1088 FAC8 0.303271
    X1088 FAC12 0.0981251
    X1089 OBJ -0.0995651
    X1089 BUDGET 1
    X1089 SEC9 1
    X1089 FAC1 -0.37676
    X1089 FAC2 0.0277034
    X1089 FAC8 0.0525726
    X1090 OBJ -0.0865041
    X1090 BUDGET 1
    X1090 SEC10 1
    X1090 FAC1 -0.0490982
    X1090 FAC5 0.049407
    X1090 FAC6 0.232665
    X1090 FAC7 0.0223941
    X1090 FAC10 -0.0844434
    X1090 FAC13 -0.215451
    X1091 OBJ -0.104702
    X1091 BUDGET 1
    X1091 SEC11 1
    X1091 FAC1 0.255873
    X1091 FAC11 0.0326764
    X1091 FAC12 0.18719
    X1091 FAC14 0.190789
    X1092 OBJ -0.0735285
    X1092 BUDGET 1
    X1092 SEC0 1
    X1092 FAC0 0.0980994
    X1092 FAC1 -0.268101
    X1092 FAC8 -0.267863
    X1092 FAC9 0.454362
    X1092 FAC10 0.328542
    X1092 FAC13 -0.136609
    X1093 OBJ -0.138404
    X1093 BUDGET 1
    X1093 SEC1 1
    X1093 FAC3 0.380291
    X1093 FAC4 0.244728
    X1093 FAC5 -0.581035
    X1093 FAC6 0.328665
    X1093 FAC11 -0.349615
    X1093 FAC13 0.157804
    X1093 FAC14 0.121494
    X1094 OBJ -0.132141
    X1094 BUDGET 1
    X1094 SEC2 1
    X1094 FAC4 0.688189
    X1094 FAC8 -0.147564
    X1094 FAC14 -0.0794135
    X1095 OBJ -0.110233
    X1095 BUDGET 1
    X1095 SEC3 1
    X1095 FAC1 0.320013
    X1095 FAC12 0.117374
    X1095 FAC13 0.148684
    X1096 OBJ -0.0986336
    X1096 BUDGET 1
    X1096 SEC4 1
    X1096 FAC2 0.618138
    X1096 FAC3 0.0699187
    X1096 FAC6 -0.031346
    X1096 FAC7 0.637392
    X1096 FAC8 0.0739633
    X1097 OBJ -0.131573
    X1097 BUDGET 1
    X1097 SEC5 1
    X1097 FAC1 0.0208364
    X1097 FAC6 0.129689
    X1097 FAC8 0.25409
    X1097 FAC9 0.00530409
    X1097 FAC10 -0.137334
    X1098 OBJ -0.100704
    X1098 BUDGET 1
    X1098 SEC6 1
    X1098 FAC0 0.00439357
    X1098 FAC1 -0.383029
    X1098 FAC6 -0.525373
    X1098 FAC7 -0.0588036
    X1098 FAC9 0.229018
    X1098 FAC14 -0.00128838
    X1099 OBJ -0.120347
    X1099 BUDGET 1
    X1099 SEC7 1
    X1099 FAC0 0.547828
    X1099 FAC2 -0.242958
    X1099 FAC6 -0.229105
    X1099 FAC8 0.218295
    X1099 FAC12 0.287179
    X1100 OBJ -0.088241
    X1100 BUDGET 1
    X1100 SEC8 1
    X1100 FAC2 0.150173
    X1100 FAC4 0.0929504
    X1100 FAC6 0.440258
    X1100 FAC11 0.644753
    X1100 FAC14 0.0592435
    X1101 OBJ -0.139647
    X1101 BUDGET 1
    X1101 SEC9 1
    X1101 FAC9 0.17795
    X1101 FAC10 0.158046
    X1101 FAC12 0.0366896
    X1101 FAC14 -0.0451831
    X1102 OBJ -0.139773
    X1102 BUDGET 1
    X1102 SEC10 1
    X1102 FAC3 -0.0497954
    X1102 FAC10 -0.0928052
    X1102 FAC11 -0.00509861
    X1102 FAC14 0.370161
    X1103 OBJ -0.11702
    X1103 BUDGET 1
    X1103 SEC11 1
    X1103 FAC1 0.184384
    X1103 FAC2 -0.151243
    X1103 FAC5 -0.184995
    X1103 FAC10 -0.0481186
    X1103 FAC11 0.168725
    X1104 OBJ -0.028982
    X1104 BUDGET 1
    X1104 SEC0 1
    X1104 FAC6 -0.378756
    X1104 FAC10 -0.146835
    X1104 FAC14 0.269951
    X1105 OBJ -0.0850523
    X1105 BUDGET 1
    X1105 SEC1 1
    X1105 FAC2 0.123872
    X1105 FAC5 -0.16676
    X1105 FAC6 -0.195614
    X1105 FAC9 0.030392
    X1105 FAC10 0.520102
    X1106 OBJ -0.0297146
    X1106 BUDGET 1
    X1106 SEC2 1
    X1106 FAC0 -0.275934
    X1106 FAC3 0.0755878
    X1106 FAC5 -0.106892
    X1106 FAC7 0.383353
    X1107 OBJ -0.0679243
    X1107 BUDGET 1
    X1107 SEC3 1
    X1107 FAC1 0.0355848
    X1107 FAC3 0.15176
    X1107 FAC4 0.192782
    X1107 FAC11 0.0814917
    X1107 FAC13 -0.331892
    X1108 OBJ -0.0785215
    X1108 BUDGET 1
    X1108 SEC4 1
    X1108 FAC0 0.278378
    X1108 FAC3 -0.324762
    X1108 FAC5 -0.172891
    X1108 FAC6 -0.0253416
    X1108 FAC8 0.285031
    X1108 FAC11 0.109066
    X1109 OBJ -0.13282
    X1109 BUDGET 1
    X1109 SEC5 1
    X1109 FAC2 0.337887
    X1109 FAC3 -0.383115
    X1109 FAC6 0.575535
    X1109 FAC9 -0.421796
    X1109 FAC12 -0.465311
    X1109 FAC13 0.425524
    X1110 OBJ -0.0679175
    X1110 BUDGET 1
    X1110 SEC6 1
    X1110 FAC1 -0.588647
    X1110 FAC6 0.318479
    X1110 FAC8 -0.0401089
    X1110 FAC10 0.261253
    X1110 FAC11 0.0771054
    X1111 OBJ -0.0624174
    X1111 BUDGET 1
    X1111 SEC7 1
    X1111 FAC0 -0.259892
    X1111 FAC2 -0.467161
    X1111 FAC5 -0.0142125
    X1111 FAC6 0.450738
    X1111 FAC7 -0.244606
    X1111 FAC11 0.159161
    X1112 OBJ -0.0639991
    X1112 BUDGET 1
    X1112 SEC8 1
    X1112 FAC1 0.0329178
    X1112 FAC4 -0.097075
    X1112 FAC7 -0.389316
    X1112 FAC8 -0.0450653
    X1112 FAC11 -0.163098
    X1113 OBJ -0.110469
    X1113 BUDGET 1
    X1113 SEC9 1
    X1113 FAC1 0.0283026
    X1113 FAC2 0.125457
    X1113 FAC6 0.177879
    X1113 FAC11 -0.149092
    X1113 FAC14 0.0671179
    X1114 OBJ -0.0931303
    X1114 BUDGET 1
    X1114 SEC10 1
    X1114 FAC2 0.445192
    X1114 FAC4 0.144742
    X1114 FAC6 -0.17105
    X1114 FAC8 0.22452
    X1114 FAC10 -0.23513
    X1114 FAC11 0.182315
    X1115 OBJ -0.0217685
    X1115 BUDGET 1
    X1115 SEC11 1
    X1115 FAC0 -0.157159
    X1115 FAC3 -0.526473
    X1115 FAC5 -0.0668579
    X1115 FAC6 0.293293
    X1115 FAC11 -0.563149
    X1116 OBJ -0.0540018
    X1116 BUDGET 1
    X1116 SEC0 1
    X1116 FAC1 0.348948
    X1116 FAC3 0.0268571
    X1116 FAC13 -0.361798
    X1117 OBJ -0.113067
    X1117 BUDGET 1
    X1117 SEC1 1
    X1117 FAC2 -0.216207
    X1117 FAC4 0.0521107
    X1117 FAC5 -0.357615
    X1117 FAC7 -0.0850696
    X1117 FAC8 0.00071661
    X1117 FAC13 0.0909518
    X1118 OBJ -0.0840401
    X1118 BUDGET 1
    X1118 SEC2 1
    X1118 FAC5 -0.189725
    X1118 FAC8 -0.241587
    X1118 FAC12 -0.110561
    X1118 FAC13 -0.404272
    X1118 FAC14 -0.337438
    X1119 OBJ -0.145628
    X1119 BUDGET 1
    X1119 SEC3 1
    X1119 FAC2 0.0497681
    X1119 FAC12 0.159218
    X1119 FAC13 -0.00465686
    X1119 FAC14 0.132036
    X1120 OBJ -0.0675757
    X1120 BUDGET 1
    X1120 SEC4 1
    X1120 FAC2 0.00803882
    X1120 FAC7 0.344399
    X1120 FAC10 -0.221977
    X1120 FAC13 0.185641
    X1121 OBJ -0.140892
    X1121 BUDGET 1
    X1121 SEC5 1
    X1121 FAC1 -0.038974
    X1121 FAC2 0.486295
    X1121 FAC6 -0.087219
    X1121 FAC9 0.317902
    X1121 FAC10 -0.126604
    X1121 FAC12 0.536018
    X1121 FAC13 0.408251
    X1122 OBJ -0.144288
    X1122 BUDGET 1
    X1122 SEC6 1
    X1122 FAC1 -0.576489
    X1122 FAC4 -0.126959
    X1122 FAC8 -0.188545
    X1122 FAC10 0.084185
    X1122 FAC13 -0.211725
    X1123 OBJ -0.0470369
    X1123 BUDGET 1
    X1123 SEC7 1
    X1123 FAC0 0.667674
    X1123 FAC3 0.0433704
    X1123 FAC4 0.172505
    X1123 FAC6 -0.0499582
    X1123 FAC11 -0.237964
    X1123 FAC13 0.0501952
    X1124 OBJ -0.13969
    X1124 BUDGET 1
    X1124 SEC8 1
    X1124 FAC5 -0.0663703
    X1124 FAC7 0.403488
    X1124 FAC9 -0.107236
    X1125 OBJ -0.0969807
    X1125 BUDGET 1
    X1125 SEC9 1
    X1125 FAC7 -0.0292225
    X1126 OBJ -0.0890321
    X1126 BUDGET 1
    X1126 SEC10 1
    X1126 FAC3 0.11915
    X1126 FAC6 0.33578
    X1126 FAC9 -0.349007
    X1126 FAC11 -0.0813136
    X1126 FAC12 0.195888
    X1127 OBJ -0.0374186
    X1127 BUDGET 1
    X1127 SEC11 1
    X1127 FAC0 0.580371
    X1127 FAC6 0.0408733
    X1127 FAC14 0.299067
    X1128 OBJ -0.0326471
    X1128 BUDGET 1
    X1128 SEC0 1
    X1128 FAC1 0.326616
    X1128 FAC5 -0.366139
    X1128 FAC6 -0.0620963
    X1128 FAC12 -0.730129
    X1129 OBJ -0.139379
    X1129 BUDGET 1
    X1129 SEC1 1
    X1129 FAC4 -0.410401
    X1129 FAC8 0.377057
    X1129 FAC9 -0.131774
    X1130 OBJ -0.102588
    X1130 BUDGET 1
    X1130 SEC2 1
    X1130 FAC1 0.00405154
    X1130 FAC2 -0.101736
    X1130 FAC3 -0.180984
    X1130 FAC4 -0.348832
    X1130 FAC7 -0.00551497
    X1130 FAC8 -0.17522
    X1130 FAC9 0.296828
    X1130 FAC10 -0.42348
    X1130 FAC11 0.196205
    X1130 FAC14 0.0199597
    X1131 OBJ -0.108888
    X1131 BUDGET 1
    X1131 SEC3 1
    X1131 FAC0 -0.0953811
    X1131 FAC1 -0.368581
    X1131 FAC4 0.101163
    X1131 FAC7 -0.378683
    X1131 FAC12 -0.126003
    X1132 OBJ -0.0275467
    X1132 BUDGET 1
    X1132 SEC4 1
    X1132 FAC7 -0.0848162
    X1132 FAC8 -0.00284796
    X1133 OBJ -0.105278
    X1133 BUDGET 1
    X1133 SEC5 1
    X1133 FAC0 -0.209755
    X1133 FAC6 0.537849
    X1133 FAC13 0.0121187
    X1134 OBJ -0.113434
    X1134 BUDGET 1
    X1134 SEC6 1
    X1134 FAC1 -0.0656551
    X1134 FAC2 0.00775568
    X1134 FAC4 0.161363
    X1134 FAC6 -0.320032
    X1134 FAC7 -0.303878
    X1134 FAC12 0.346322
    X1135 OBJ -0.0399957
    X1135 BUDGET 1
    X1135 SEC7 1
    X1135 FAC3 0.212904
    X1135 FAC7 -0.241179
    X1135 FAC10 0.663597
    X1135 FAC13 -0.0681238
    X1136 OBJ -0.0426943
    X1136 BUDGET 1
    X1136 SEC8 1
    X1136 FAC10 0.0126372
    X1136 FAC12 0.475548
    X1136 FAC13 -0.316964
    X1137 OBJ -0.124012
    X1137 BUDGET 1
    X1137 SEC9 1
    X1137 FAC2 -0.243934
    X1137 FAC4 -0.419461
    X1137 FAC8 0.337154
    X1137 FAC10 0.32495
    X1137 FAC11 0.283394
    X1137 FAC13 -0.141036
    X1138 OBJ -0.100381
    X1138 BUDGET 1
    X1138 SEC10 1
    X1138 FAC0 -0.180851
    X1138 FAC3 0.239065
    X1138 FAC7 0.247881
    X1138 FAC8 -0.249495
    X1138 FAC11 -0.172218
    X1138 FAC12 -0.221836
    X1139 OBJ -0.131707
    X1139 BUDGET 1
    X1139 SEC11 1
    X1139 FAC0 0.791278
    X1139 FAC1 -0.165273
    X1139 FAC2 -0.167911
    X1139 FAC8 -0.0503609
    X1139 FAC10 -0.441772
    X1139 FAC11 -0.445689
    X1139 FAC14 0.381752
    X1140 OBJ -0.0409267
    X1140 BUDGET 1
    X1140 SEC0 1
    X1140 FAC1 -0.464389
    X1140 FAC9 0.118129
    X1140 FAC13 0.302436
    X1141 OBJ -0.117668
    X1141 BUDGET 1
    X1141 SEC1 1
    X1141 FAC1 0.360404
    X1141 FAC3 0.3717
    X1141 FAC4 -0.36194
    X1141 FAC5 0.302852
    X1141 FAC13 0.0632765
    X1141 FAC14 -0.120222
    X1142 OBJ -0.101831
    X1142 BUDGET 1
    X1142 SEC2 1
    X1142 FAC0 0.197995
    X1142 FAC7 -0.29168
    X1143 OBJ -0.0282353
    X1143 BUDGET 1
    X1143 SEC3 1
    X1143 FAC5 -0.213283
    X1144 OBJ -0.141689
    X1144 BUDGET 1
    X1144 SEC4 1
    X1144 FAC8 0.170971
    X1144 FAC9 0.0932791
    X1144 FAC12 -0.294975
    X1145 OBJ -0.0969102
    X1145 BUDGET 1
    X1145 SEC5 1
    X1145 FAC3 -0.401445
    X1145 FAC5 0.205054
    X1145 FAC9 -0.0116572
    X1146 OBJ -0.0709363
    X1146 BUDGET 1
    X1146 SEC6 1
    X1146 FAC3 0.545224
    X1146 FAC7 -0.0798968
    X1146 FAC10 0.269271
    X1146 FAC11 -0.205232
    X1146 FAC13 -0.257342
    X1146 FAC14 0.25518
    X1147 OBJ -0.0791377
    X1147 BUDGET 1
    X1147 SEC7 1
    X1147 FAC1 0.697439
    X1147 FAC6 -0.211841
    X1147 FAC10 -0.565163
    X1147 FAC11 -0.0619724
    X1147 FAC12 -0.319918
    X1147 FAC14 -0.260455
    X1148 OBJ -0.0480561
    X1148 BUDGET 1
    X1148 SEC8 1
    X1148 FAC6 0.468784
    X1148 FAC9 0.50411
    X1148 FAC13 0.171303
    X1149 OBJ -0.049341
    X1149 BUDGET 1
    X1149 SEC9 1
    X1149 FAC0 -0.00889061
    X1149 FAC4 -0.2648
    X1149 FAC5 -0.649597
    X1149 FAC8 0.212299
    X1149 FAC10 0.297062
    X1149 FAC14 0.491494
    X1150 OBJ -0.0244577
    X1150 BUDGET 1
    X1150 SEC10 1
    X1150 FAC0 -0.156429
    X1150 FAC4 0.134401
    X1150 FAC5 0.0062846
    X1150 FAC6 0.333926
    X1150 FAC8 0.145907
    X1150 FAC13 -0.0664778
    X1150 FAC14 -0.147753
    X1151 OBJ -0.0413364
    X1151 BUDGET 1
    X1151 SEC11 1
    X1151 FAC2 -0.168064
    X1151 FAC7 0.153395
    X1151 FAC9 -0.695303
    X1151 FAC11 -0.093353
    X1151 FAC12 0.209476
    X1152 OBJ -0.0633357
    X1152 BUDGET 1
    X1152 SEC0 1
    X1152 FAC0 -0.0926684
    X1152 FAC12 0.147178
    X1152 FAC13 -0.0790884
    X1152 FAC14 -0.261247
    X1153 OBJ -0.128632
    X1153 BUDGET 1
    X1153 SEC1 1
    X1153 FAC1 -0.308575
    X1153 FAC6 -0.550707
    X1153 FAC9 -0.250354
    X1153 FAC10 0.376258
    X1154 OBJ -0.0882566
    X1154 BUDGET 1
    X1154 SEC2 1
    X1154 FAC3 0.313747
    X1154 FAC4 -0.333557
    X1154 FAC7 0.113041
    X1154 FAC14 0.332692
    X1155 OBJ -0.0299957
    X1155 BUDGET 1
    X1155 SEC3 1
    X1155 FAC2 0.0278146
    X1155 FAC6 -0.42235
    X1155 FAC7 0.198373
    X1155 FAC14 -0.207986
    X1156 OBJ -0.101019
    X1156 BUDGET 1
    X1156 SEC4 1
    X1156 FAC1 0.397062
    X1156 FAC9 0.679183
    X1156 FAC11 0.178381
    X1156 FAC12 -0.0438057
    X1156 FAC13 0.0193811
    X1156 FAC14 0.0595088
    X1157 OBJ -0.140511
    X1157 BUDGET 1
    X1157 SEC5 1
    X1157 FAC0 0.053429
    X1157 FAC4 0.0871298
    X1157 FAC11 -0.0431814
    X1157 FAC14 0.360794
    X1158 OBJ -0.0972468
    X1158 BUDGET 1
    X1158 SEC6 1
    X1158 FAC4 0.325933
    X1158 FAC8 0.0893524
    X1158 FAC12 -0.0984669
    X1158 FAC14 -0.286976
    X1159 OBJ -0.023021
    X1159 BUDGET 1
    X1159 SEC7 1
    X1159 FAC3 0.161014
    X1159 FAC6 0.803431
    X1159 FAC8 0.0316972
    X1159 FAC9 0.236968
    X1159 FAC10 -0.0730537
    X1160 OBJ -0.0472404
    X1160 BUDGET 1
    X1160 SEC8 1
    X1160 FAC0 0.538616
    X1160 FAC1 0.49395
    X1160 FAC4 -0.137813
    X1160 FAC6 0.170357
    X1160 FAC12 0.382705
    X1160 FAC13 0.0641631
    X1161 OBJ -0.071967
    X1161 BUDGET 1
    X1161 SEC9 1
    X1161 FAC1 0.080875
    X1161 FAC5 0.0848275
    X1161 FAC9 0.0175377
    X1162 OBJ -0.0426449
    X1162 BUDGET 1
    X1162 SEC10 1
    X1162 FAC2 -0.154968
    X1162 FAC6 -0.507815
    X1162 FAC7 0.542286
    X1162 FAC10 -0.216926
    X1163 OBJ -0.132862
    X1163 BUDGET 1
    X1163 SEC11 1
    X1163 FAC1 0.42345
    X1163 FAC4 -0.0859923
    X1163 FAC5 -0.0499623
    X1163 FAC9 -0.269082
    X1163 FAC11 -0.356169
    X1163 FAC12 0.347584
    X1164 OBJ -0.0944435
    X1164 BUDGET 1
    X1164 SEC0 1
    X1164 FAC1 0.111973
    X1164 FAC4 0.28578
    X1164 FAC5 0.752694
    X1164 FAC6 -0.0132684
    X1165 OBJ -0.0893553
    X1165 BUDGET 1
    X1165 SEC1 1
    X1165 FAC1 0.37439
    X1165 FAC6 -0.144224
    X1165 FAC9 0.49934
    X1165 FAC13 -0.245706
    X1165 FAC14 0.167368
    X1166 OBJ -0.102125
    X1166 BUDGET 1
    X1166 SEC2 1
    X1166 FAC0 0.146767
    X1166 FAC2 -0.321083
    X1166 FAC3 -0.17897
    X1166 FAC5 0.0209229
    X1166 FAC10 0.0894446
    X1166 FAC11 -0.369963
    X1167 OBJ -0.0620182
    X1167 BUDGET 1
    X1167 SEC3 1
    X1167 FAC2 -0.210044
    X1167 FAC4 -0.477359
    X1167 FAC9 -0.98795
    X1167 FAC13 0.0895518
    X1168 OBJ -0.0240177
    X1168 BUDGET 1
    X1168 SEC4 1
    X1168 FAC2 -0.062785
    X1168 FAC4 0.252212
    X1168 FAC9 0.368875
    X1168 FAC10 -0.0349275
    X1168 FAC14 0.264194
    X1169 OBJ -0.0376287
    X1169 BUDGET 1
    X1169 SEC5 1
    X1169 FAC1 0.101279
    X1169 FAC2 -0.110861
    X1169 FAC6 0.493608
    X1169 FAC7 0.320789
    X1169 FAC14 0.687899
    X1170 OBJ -0.120544
    X1170 BUDGET 1
    X1170 SEC6 1
    X1170 FAC3 0.261214
    X1170 FAC5 0.41722
    X1170 FAC6 0.472372
    X1170 FAC14 -0.138665
    X1171 OBJ -0.135695
    X1171 BUDGET 1
    X1171 SEC7 1
    X1171 FAC8 -0.0926746
    X1171 FAC10 0.454912
    X1171 FAC11 -0.340424
    X1172 OBJ -0.0708051
    X1172 BUDGET 1
    X1172 SEC8 1
    X1172 FAC0 0.321673
    X1172 FAC3 -0.410769
    X1172 FAC5 -0.50001
    X1172 FAC6 0.317736
    X1172 FAC13 0.0195319
    X1173 OBJ -0.0441269
    X1173 BUDGET 1
    X1173 SEC9 1
    X1173 FAC1 -0.209372
    X1173 FAC2 -0.652726
    X1173 FAC5 -0.0941927
    X1173 FAC14 0.0619532
    X1174 OBJ -0.0693054
    X1174 BUDGET 1
    X1174 SEC10 1
    X1174 FAC2 -0.00902657
    X1174 FAC3 -0.16946
    X1174 FAC6 -0.105826
    X1174 FAC10 -0.083278
    X1174 FAC11 -0.0302213
    X1174 FAC12 -0.37465
    X1175 OBJ -0.140029
    X1175 BUDGET 1
    X1175 SEC11 1
    X1175 FAC2 0.239798
    X1175 FAC6 0.100848
    X1175 FAC7 -0.028151
    X1175 FAC13 -0.281377
    X1176 OBJ -0.0983413
    X1176 BUDGET 1
    X1176 SEC0 1
    X1176 FAC1 -0.158173
    X1176 FAC8 0.177823
    X1176 FAC12 0.182323
    X1177 OBJ -0.0288814
    X1177 BUDGET 1
    X1177 SEC1 1
    X1177 FAC3 -0.335605
    X1177 FAC6 0.313631
    X1177 FAC13 -0.0996964
    X1178 OBJ -0.0437073
    X1178 BUDGET 1
    X1178 SEC2 1
    X1178 FAC2 0.16333
    X1178 FAC8 0.467978
    X1178 FAC14 0.208854
    X1179 OBJ -0.110609
    X1179 BUDGET 1
    X1179 SEC3 1
    X1179 FAC7 0.0901743
    X1179 FAC8 -0.0158286
    X1179 FAC11 0.438973
    X1180 OBJ -0.066338
    X1180 BUDGET 1
    X1180 SEC4 1
    X1180 FAC0 -0.468969
    X1180 FAC3 0.137587
    X1180 FAC4 0.513743
    X1180 FAC11 0.0907735
    X1181 OBJ -0.0462675
    X1181 BUDGET 1
    X1181 SEC5 1
    X1181 FAC2 -0.221963
    X1181 FAC4 -0.426808
    X1181 FAC6 0.536647
    X1181 FAC7 0.547914
    X1181 FAC9 0.089788
    X1181 FAC14 0.0793272
    X1182 OBJ -0.103784
    X1182 BUDGET 1
    X1182 SEC6 1
    X1182 FAC4 0.471057
    X1182 FAC8 -0.0774761
    X1182 FAC13 0.0043856
    X1183 OBJ -0.130509
    X1183 BUDGET 1
    X1183 SEC7 1
    X1183 FAC6 -0.00548227
    X1183 FAC9 0.435524
    X1183 FAC11 -0.412322
    X1184 OBJ -0.0697524
    X1184 BUDGET 1
    X1184 SEC8 1
    X1184 FAC1 -0.498052
    X1184 FAC2 0.608041
    X1184 FAC4 -0.244194
    X1184 FAC7 -0.236009
    X1184 FAC10 -0.311929
    X1184 FAC11 0.122882
    X1184 FAC14 -0.039772
    X1185 OBJ -0.0990568
    X1185 BUDGET 1
    X1185 SEC9 1
    X1185 FAC0 0.0380891
    X1185 FAC1 -0.0118666
    X1185 FAC2 0.167878
    X1185 FAC6 -0.00535983
    X1185 FAC9 0.0479711
    X1185 FAC10 -0.430165
    X1185 FAC11 0.22309
    X1185 FAC12 -0.017237
    X1185 FAC13 0.154302
    X1186 OBJ -0.111073
    X1186 BUDGET 1
    X1186 SEC10 1
    X1186 FAC0 0.446619
    X1186 FAC4 -0.742441
    X1186 FAC5 0.174488
    X1186 FAC8 0.156866
    X1186 FAC9 -0.441584
    X1186 FAC14 -0.082471
    X1187 OBJ -0.0681418
    X1187 BUDGET 1
    X1187 SEC11 1
    X1187 FAC11 -0.300422
    X1187 FAC13 0.39099
    X1188 OBJ -0.129283
    X1188 BUDGET 1
    X1188 SEC0 1
    X1188 FAC9 0.248261
    X1188 FAC10 0.128779
    X1189 OBJ -0.0730533
    X1189 BUDGET 1
    X1189 SEC1 1
    X1189 FAC0 -0.401699
    X1189 FAC1 -0.18902
    X1189 FAC14 0.0205867
    X1190 OBJ -0.142292
    X1190 BUDGET 1
    X1190 SEC2 1
    X1190 FAC0 0.142046
    X1190 FAC7 -0.262887
    X1190 FAC10 0.344489
    X1190 FAC11 0.0633467
    X1191 OBJ -0.0947534
    X1191 BUDGET 1
    X1191 SEC3 1
    X1191 FAC0 0.176421
    X1191 FAC3 0.232146
    X1191 FAC6 0.328597
    X1191 FAC9 -0.0707662
    X1191 FAC11 -0.280997
    X1192 OBJ -0.0420584
    X1192 BUDGET 1
    X1192 SEC4 1
    X1192 FAC0 -0.00644361
    X1192 FAC2 -0.623251
    X1192 FAC5 0.00351844
    X1192 FAC7 0.497715
    X1192 FAC9 0.617939
    X1193 OBJ -0.139635
    X1193 BUDGET 1
    X1193 SEC5 1
    X1193 FAC4 0.648839
    X1193 FAC7 0.346451
    X1193 FAC12 0.143509
    X1194 OBJ -0.0755539
    X1194 BUDGET 1
    X1194 SEC6 1
    X1194 FAC1 -0.0974132
    X1194 FAC12 0.0426778
    X1195 OBJ -0.117238
    X1195 BUDGET 1
    X1195 SEC7 1
    X1195 FAC2 -0.162229
    X1195 FAC5 0.297397
    X1195 FAC8 0.338135
    X1195 FAC9 -0.150272
    X1195 FAC11 0.37815
    X1195 FAC12 -0.0702756
    X1195 FAC14 -0.286733
    X1196 OBJ -0.112898
    X1196 BUDGET 1
    X1196 SEC8 1
    X1196 FAC3 -0.43184
    X1196 FAC8 -0.188589
    X1196 FAC9 0.42304
    X1197 OBJ -0.0251911
    X1197 BUDGET 1
    X1197 SEC9 1
    X1197 FAC0 0.134854
    X1197 FAC12 0.325263
    X1198 OBJ -0.0664048
    X1198 BUDGET 1
    X1198 SEC10 1
    X1198 FAC0 -0.203004
    X1198 FAC7 -0.103264
    X1198 FAC9 0.355441
    X1199 OBJ -0.143317
    X1199 BUDGET 1
    X1199 SEC11 1
    X1199 FAC1 0.044977
    X1199 FAC3 -0.274714
    X1199 FAC6 -0.0849427
    X1199 FAC12 -0.119286
    X1200 OBJ -0.107594
    X1200 BUDGET 1
    X1200 SEC0 1
    X1200 FAC1 -0.107774
    X1200 FAC5 -0.124203
    X1200 FAC10 0.0739136
    X1201 OBJ -0.0303233
    X1201 BUDGET 1
    X1201 SEC1 1
    X1201 FAC1 0.0765471
    X1201 FAC8 -0.327202
    X1201 FAC9 -0.279314
    X1202 OBJ -0.0887363
    X1202 BUDGET 1
    X1202 SEC2 1
    X1202 FAC0 0.242332
    X1202 FAC2 -0.137127
    X1202 FAC5 0.234422
    X1202 FAC13 0.169058
    X1203 OBJ -0.0784281
    X1203 BUDGET 1
    X1203 SEC3 1
    X1203 FAC1 0.400727
    X1203 FAC2 0.14242
    X1203 FAC4 0.0218796
    X1203 FAC14 -0.313191
    X1204 OBJ -0.0504307
    X1204 BUDGET 1
    X1204 SEC4 1
    X1204 FAC0 0.466522
    X1204 FAC4 0.136583
    X1204 FAC5 0.289583
    X1204 FAC7 -0.124644
    X1204 FAC8 -0.105955
    X1204 FAC10 0.0151686
    X1204 FAC11 0.205699
    X1204 FAC13 -0.176591
    X1205 OBJ -0.0421068
    X1205 BUDGET 1
    X1205 SEC5 1
    X1205 FAC1 0.817722
    X1205 FAC14 0.07655
    X1206 OBJ -0.149561
    X1206 BUDGET 1
    X1206 SEC6 1
    X1206 FAC7 0.0595084
    X1206 FAC14 -0.158219
    X1207 OBJ -0.021979
    X1207 BUDGET 1
    X1207 SEC7 1
    X1207 FAC7 0.199099
    X1207 FAC8 -0.186575
    X1207 FAC11 0.436202
    X1208 OBJ -0.0360514
    X1208 BUDGET 1
    X1208 SEC8 1
    X1208 FAC10 -0.184698
    X1208 FAC11 -0.229054
    X1209 OBJ -0.0871649
    X1209 BUDGET 1
    X1209 SEC9 1
    X1209 FAC4 -0.0245751
    X1209 FAC7 -0.0666133
    X1209 FAC10 -0.339803
    X1209 FAC12 -0.384981
    X1210 OBJ -0.0619972
    X1210 BUDGET 1
    X1210 SEC10 1
    X1210 FAC1 0.00725905
    X1210 FAC10 -0.181076
    X1211 OBJ -0.0822998
    X1211 BUDGET 1
    X1211 SEC11 1
    X1211 FAC2 -0.550286
    X1211 FAC5 -0.323856
    X1211 FAC6 -0.131621
    X1211 FAC9 0.255143
    X1211 FAC10 -0.0929049
    X1211 FAC11 -0.214702
    X1212 OBJ -0.13758
    X1212 BUDGET 1
    X1212 SEC0 1
    X1212 FAC0 -0.10205
    X1212 FAC2 0.298567
    X1212 FAC3 -0.327443
    X1212 FAC5 0.0961178
    X1212 FAC9 0.389647
    X1212 FAC12 -0.443642
    X1213 OBJ -0.11364
    X1213 BUDGET 1
    X1213 SEC1 1
    X1213 FAC0 0.168231
    X1213 FAC1 0.00291625
    X1213 FAC5 -0.192612
    X1213 FAC7 0.294201
    X1213 FAC11 0.149337
    X1213 FAC12 -0.429539
    X1214 OBJ -0.0316218
    X1214 BUDGET 1
    X1214 SEC2 1
    X1214 FAC4 -0.0624625
    X1214 FAC5 -0.613536
    X1214 FAC11 -0.165737
    X1214 FAC14 0.494905
    X1215 OBJ -0.114231
    X1215 BUDGET 1
    X1215 SEC3 1
    X1215 FAC1 -0.0224319
    X1215 FAC2 -0.10837
    X1215 FAC4 0.0315646
    X1215 FAC9 0.099244
    X1215 FAC12 -0.194158
    X1215 FAC13 -0.132326
    X1216 OBJ -0.0581049
    X1216 BUDGET 1
    X1216 SEC4 1
    X1216 FAC4 -0.111371
    X1216 FAC5 0.0656754
    X1216 FAC8 -0.479914
    X1216 FAC9 0.186053
    X1216 FAC11 0.335407
    X1216 FAC13 0.0431428
    X1217 OBJ -0.137654
    X1217 BUDGET 1
    X1217 SEC5 1
    X1217 FAC0 0.195236
    X1217 FAC2 -0.554063
    X1217 FAC4 0.350574
    X1217 FAC6 0.0940471
    X1217 FAC7 0.38144
    X1217 FAC10 -0.0380978
    X1218 OBJ -0.0877076
    X1218 BUDGET 1
    X1218 SEC6 1
    X1218 FAC0 -0.326451
    X1218 FAC3 -0.375639
    X1218 FAC6 0.49216
    X1218 FAC7 -0.473703
    X1218 FAC14 0.239072
    X1219 OBJ -0.0519864
    X1219 BUDGET 1
    X1219 SEC7 1
    X1219 FAC1 0.34985
    X1219 FAC3 0.0195058
    X1220 OBJ -0.0686103
    X1220 BUDGET 1
    X1220 SEC8 1
    X1220 FAC0 0.340004
    X1220 FAC1 0.282438
    X1220 FAC2 -0.0701852
    X1221 OBJ -0.067947
    X1221 BUDGET 1
    X1221 SEC9 1
    X1221 FAC0 0.187384
    X1221 FAC4 0.586591
    X1221 FAC6 -0.316445
    X1221 FAC7 0.101302
    X1221 FAC8 0.274829
    X1221 FAC10 -0.906776
    X1221 FAC11 -0.050071
    X1221 FAC12 0.406734
    X1222 OBJ -0.041284
    X1222 BUDGET 1
    X1222 SEC10 1
    X1222 FAC1 0.268004
    X1222 FAC3 -0.120323
    X1222 FAC13 0.182672
    X1222 FAC14 -0.405678
    X1223 OBJ -0.0345316
    X1223 BUDGET 1
    X1223 SEC11 1
    X1223 FAC2 -0.135942
    X1223 FAC6 -0.000220405
    X1223 FAC14 0.074034
    X1224 OBJ -0.0870314
    X1224 BUDGET 1
    X1224 SEC0 1
    X1224 FAC9 -0.270132
    X1224 FAC10 -0.0680713
    X1224 FAC11 -0.0351248
    X1225 OBJ -0.108655
    X1225 BUDGET 1
    X1225 SEC1 1
    X1225 FAC3 0.0901104
    X1225 FAC6 0.309934
    X1225 FAC10 0.0944019
    X1225 FAC13 0.436457
    X1226 OBJ -0.0254825
    X1226 BUDGET 1
    X1226 SEC2 1
    X1226 FAC1 -0.256568
    X1226 FAC7 -0.197706
    X1226 FAC11 0.00570051
    X1226 FAC12 -0.4973
    X1227 OBJ -0.0849342
    X1227 BUDGET 1
    X1227 SEC3 1
    X1227 FAC0 -0.649571
    X1227 FAC4 0.326292
    X1227 FAC5 0.0774861
    X1228 OBJ -0.0971945
    X1228 BUDGET 1
    X1228 SEC4 1
    X1228 FAC0 -0.0938583
    X1228 FAC4 -0.110724
    X1229 OBJ -0.0977818
    X1229 BUDGET 1
    X1229 SEC5 1
    X1229 FAC1 -0.147841
    X1229 FAC2 -0.571423
    X1229 FAC4 0.444851
    X1229 FAC5 0.250543
    X1229 FAC14 0.332476
    X1230 OBJ -0.0295841
    X1230 BUDGET 1
    X1230 SEC6 1
    X1230 FAC5 0.056903
    X1230 FAC7 0.296934
    X1230 FAC8 0.107552
    X1230 FAC9 0.522518
    X1230 FAC12 -0.461689
    X1231 OBJ -0.105078
    X1231 BUDGET 1
    X1231 SEC7 1
    X1231 FAC1 -0.0280904
    X1231 FAC3 -0.0474644
    X1231 FAC5 -0.218436
    X1231 FAC6 -0.434073
    X1231 FAC12 -0.331425
    X1231 FAC13 -0.146328
    X1232 OBJ -0.13639
    X1232 BUDGET 1
    X1232 SEC8 1
    X1232 FAC1 0.131283
    X1232 FAC4 -0.0533621
    X1232 FAC8 0.274489
    X1232 FAC10 0.406808
    X1232 FAC11 0.0729098
    X1232 FAC14 0.0392576
    X1233 OBJ -0.020628
    X1233 BUDGET 1
    X1233 SEC9 1
    X1233 FAC2 0.257777
    X1233 FAC4 0.104294
    X1233 FAC7 -0.306986
    X1233 FAC10 0.50814
    X1234 OBJ -0.10744
    X1234 BUDGET 1
    X1234 SEC10 1
    X1234 FAC0 -0.369524
    X1234 FAC4 -0.35685
    X1234 FAC5 -0.219998
    X1234 FAC7 -0.498597
    X1234 FAC11 -0.0337738
    X1235 OBJ -0.0622914
    X1235 BUDGET 1
    X1235 SEC11 1
    X1235 FAC0 0.176192
    X1235 FAC5 0.0629155
    X1235 FAC8 -0.520579
    X1235 FAC10 0.191284
    X1235 FAC13 0.301562
    X1235 FAC14 0.289901
    X1236 OBJ -0.0859217
    X1236 BUDGET 1
    X1236 SEC0 1
    X1236 FAC3 -0.123429
    X1236 FAC9 0.263276
    X1236 FAC11 -0.182416
    X1237 OBJ -0.0342379
    X1237 BUDGET 1
    X1237 SEC1 1
    X1237 FAC4 -0.372689
    X1237 FAC6 -0.0503821
    X1237 FAC11 0.241574
    X1237 FAC13 -0.106377
    X1238 OBJ -0.129842
    X1238 BUDGET 1
    X1238 SEC2 1
    X1238 FAC1 -0.103093
    X1238 FAC2 -0.288351
    X1238 FAC7 -0.012394
    X1238 FAC14 0.311389
    X1239 OBJ -0.102689
    X1239 BUDGET 1
    X1239 SEC3 1
    X1239 FAC0 -0.283431
    X1239 FAC4 0.11178
    X1239 FAC5 -0.308205
    X1239 FAC7 -0.0508063
    X1239 FAC11 0.244284
    X1239 FAC14 -0.235326
    X1240 OBJ -0.0505221
    X1240 BUDGET 1
    X1240 SEC4 1
    X1240 FAC1 0.265815
    X1240 FAC2 -0.0794147
    X1240 FAC4 0.150438
    X1240 FAC6 0.215086
    X1240 FAC7 0.275107
    X1240 FAC8 -0.484408
    X1240 FAC10 -0.659242
    X1240 FAC11 -0.13733
    X1240 FAC12 -0.395127
    X1240 FAC13 -0.380091
    X1241 OBJ -0.0350168
    X1241 BUDGET 1
    X1241 SEC5 1
    X1241 FAC4 0.0383056
    X1241 FAC6 0.635328
    X1241 FAC8 0.444944
    X1241 FAC12 -0.12704
    X1241 FAC13 -0.26999
    X1242 OBJ -0.0593507
    X1242 BUDGET 1
    X1242 SEC6 1
    X1242 FAC5 0.195155
    X1242 FAC8 0.0803203
    X1242 FAC9 -0.220528
    X1242 FAC10 0.298591
    X1242 FAC11 0.237858
    X1242 FAC13 0.349333
    X1242 FAC14 0.0673081
    X1243 OBJ -0.11814
    X1243 BUDGET 1
    X1243 SEC7 1
    X1243 FAC2 0.125886
    X1243 FAC6 0.692026
    X1243 FAC10 0.43902
    X1244 OBJ -0.119851
    X1244 BUDGET 1
    X1244 SEC8 1
    X1244 FAC0 -0.29592
    X1244 FAC4 0.23454
    X1244 FAC5 0.214833
    X1244 FAC6 0.0169743
    X1244 FAC9 -0.14851
    X1245 OBJ -0.119989
    X1245 BUDGET 1
    X1245 SEC9 1
    X1245 FAC4 0.0453916
    X1245 FAC8 -0.0528136
    X1245 FAC10 0.544058
    X1246 OBJ -0.0804843
    X1246 BUDGET 1
    X1246 SEC10 1
    X1246 FAC2 0.142732
    X1246 FAC3 -0.0302728
    X1246 FAC5 -0.214005
    X1246 FAC9 0.40115
    X1246 FAC10 -0.347247
    X1246 FAC11 0.440363
    X1247 OBJ -0.0630626
    X1247 BUDGET 1
    X1247 SEC11 1
    X1247 FAC1 -0.209588
    X1247 FAC5 -0.329944
    X1247 FAC6 0.829822
    X1247 FAC10 -0.047772
    X1247 FAC13 -0.445986
    X1247 FAC14 -0.0940032
    X1248 OBJ -0.0236817
    X1248 BUDGET 1
    X1248 SEC0 1
    X1248 FAC1 -0.491729
    X1248 FAC2 0.142785
    X1248 FAC3 -0.539924
    X1248 FAC9 0.156562
    X1248 FAC10 0.395366
    X1248 FAC13 -0.0702534
    X1248 FAC14 -0.341772
    X1249 OBJ -0.104747
    X1249 BUDGET 1
    X1249 SEC1 1
    X1249 FAC6 -0.641565
    X1249 FAC7 -0.419441
    X1249 FAC9 -0.183327
    X1249 FAC11 0.208465
    X1249 FAC13 0.159714
    X1250 OBJ -0.116958
    X1250 BUDGET 1
    X1250 SEC2 1
    X1250 FAC2 0.361116
    X1250 FAC6 0.182741
    X1250 FAC7 -0.221223
    X1250 FAC9 -0.165025
    X1250 FAC12 -0.676726
    X1250 FAC14 -0.540688
    X1251 OBJ -0.0777629
    X1251 BUDGET 1
    X1251 SEC3 1
    X1251 FAC0 -0.210437
    X1251 FAC1 0.211602
    X1251 FAC4 0.302082
    X1251 FAC5 0.214949
    X1251 FAC6 0.177391
    X1251 FAC8 -0.472367
    X1251 FAC11 0.389815
    X1251 FAC13 0.0213955
    X1252 OBJ -0.145704
    X1252 BUDGET 1
    X1252 SEC4 1
    X1252 FAC0 -0.0352936
    X1252 FAC5 -0.156662
    X1252 FAC7 0.205058
    X1252 FAC8 0.558404
    X1252 FAC10 0.0492132
    X1252 FAC11 0.30856
    X1253 OBJ -0.108378
    X1253 BUDGET 1
    X1253 SEC5 1
    X1253 FAC3 -0.0258455
    X1253 FAC5 -0.0379771
    X1253 FAC10 0.209284
    X1253 FAC13 0.349018
    X1254 OBJ -0.10898
    X1254 BUDGET 1
    X1254 SEC6 1
    X1254 FAC0 0.0530965
    X1254 FAC2 -0.0526145
    X1254 FAC6 0.148197
    X1255 OBJ -0.120716
    X1255 BUDGET 1
    X1255 SEC7 1
    X1255 FAC0 -0.0900211
    X1255 FAC3 0.237878
    X1255 FAC6 -0.326814
    X1255 FAC7 -0.182583
    X1255 FAC9 -0.0758091
    X1256 OBJ -0.0421221
    X1256 BUDGET 1
    X1256 SEC8 1
    X1256 FAC2 0.0868503
    X1256 FAC7 -0.0874844
    X1256 FAC11 0.192784
    X1256 FAC12 0.326985
    X1257 OBJ -0.146503
    X1257 BUDGET 1
    X1257 SEC9 1
    X1257 FAC3 -0.427572
    X1257 FAC8 -0.10639
    X1258 OBJ -0.0516617
    X1258 BUDGET 1
    X1258 SEC10 1
    X1258 FAC7 0.147289
    X1258 FAC8 -0.178883
    X1258 FAC11 -0.183205
    X1258 FAC12 0.135388
    X1259 OBJ -0.034338
    X1259 BUDGET 1
    X1259 SEC11 1
    X1259 FAC4 0.338055
    X1259 FAC6 -0.430492
    X1259 FAC11 0.213833
    X1259 FAC12 0.0192506
    X1260 OBJ -0.0605876
    X1260 BUDGET 1
    X1260 SEC0 1
    X1260 FAC2 0.185249
    X1260 FAC4 0.291582
    X1260 FAC5 -0.127995
    X1260 FAC8 -0.222407
    X1260 FAC10 -0.050397
    X1261 OBJ -0.0628728
    X1261 BUDGET 1
    X1261 SEC1 1
    X1261 FAC1 0.0501837
    X1261 FAC3 -0.333334
    X1261 FAC7 0.424322
    X1261 FAC8 -0.231083
    X1261 FAC11 0.00448276
    X1262 OBJ -0.090531
    X1262 BUDGET 1
    X1262 SEC2 1
    X1262 FAC3 -0.21605
    X1262 FAC7 -0.0329256
    X1262 FAC11 0.298961
    X1263 OBJ -0.0918153
    X1263 BUDGET 1
    X1263 SEC3 1
    X1263 FAC0 0.313775
    X1263 FAC2 -0.12675
    X1263 FAC7 0.22062
    X1263 FAC8 -0.313885
    X1263 FAC12 0.270643
    X1264 OBJ -0.0285179
    X1264 BUDGET 1
    X1264 SEC4 1
    X1264 FAC0 0.825232
    X1264 FAC1 0.151519
    X1264 FAC6 0.164543
    X1264 FAC9 0.579344
    X1264 FAC10 0.472927
    X1265 OBJ -0.0767998
    X1265 BUDGET 1
    X1265 SEC5 1
    X1265 FAC2 -0.152673
    X1265 FAC4 -0.4064
    X1265 FAC5 0.730806
    X1265 FAC7 0.269375
    X1265 FAC10 0.0120668
    X1265 FAC11 -0.178047
    X1265 FAC13 0.18857
    X1266 OBJ -0.0696811
    X1266 BUDGET 1
    X1266 SEC6 1
    X1266 FAC1 -0.0194525
    X1266 FAC4 0.0316865
    X1266 FAC12 0.314723
    X1266 FAC14 -0.27163
    X1267 OBJ -0.0962452
    X1267 BUDGET 1
    X1267 SEC7 1
    X1267 FAC7 0.608711
    X1267 FAC10 0.29088
    X1268 OBJ -0.0822336
    X1268 BUDGET 1
    X1268 SEC8 1
    X1268 FAC1 -0.297912
    X1268 FAC5 -0.178132
    X1268 FAC8 0.405062
    X1268 FAC13 -0.0665699
    X1268 FAC14 0.0284796
    X1269 OBJ -0.119785
    X1269 BUDGET 1
    X1269 SEC9 1
    X1269 FAC2 -0.273062
    X1269 FAC3 -0.611341
    X1269 FAC5 0.424486
    X1269 FAC14 -0.0988613
    X1270 OBJ -0.143231
    X1270 BUDGET 1
    X1270 SEC10 1
    X1270 FAC0 -0.0477804
    X1270 FAC5 0.0308049
    X1270 FAC7 0.00166612
    X1270 FAC12 -0.213581
    X1271 OBJ -0.12861
    X1271 BUDGET 1
    X1271 SEC11 1
    X1271 FAC1 -0.337374
    X1271 FAC4 -0.263294
    X1271 FAC10 0.236009
    X1271 FAC11 0.257877
    X1271 FAC13 -0.455217
    X1272 OBJ -0.0372326
    X1272 BUDGET 1
    X1272 SEC0 1
    X1272 FAC2 -0.0993458
    X1272 FAC5 0.201482
    X1272 FAC8 0.467821
    X1272 FAC10 0.0711933
    X1272 FAC11 0.14428
    X1272 FAC12 0.00355704
    X1272 FAC14 -0.114667
    X1273 OBJ -0.118409
    X1273 BUDGET 1
    X1273 SEC1 1
    X1273 FAC2 0.64298
    X1273 FAC4 -0.0357496
    X1273 FAC6 -0.109925
    X1273 FAC9 0.247234
    X1273 FAC10 0.25024
    X1274 OBJ -0.12606
    X1274 BUDGET 1
    X1274 SEC2 1
    X1274 FAC4 -0.162759
    X1274 FAC5 0.00471369
    X1274 FAC9 0.180318
    X1274 FAC10 0.547409
    X1274 FAC11 -0.0866474
    X1275 OBJ -0.0959135
    X1275 BUDGET 1
    X1275 SEC3 1
    X1275 FAC0 -0.172222
    X1275 FAC2 -0.26048
    X1275 FAC9 0.526459
    X1275 FAC11 0.219765
    X1275 FAC12 -0.0968177
    X1275 FAC14 -0.407899
    X1276 OBJ -0.122804
    X1276 BUDGET 1
    X1276 SEC4 1
    X1276 FAC1 -0.389501
    X1276 FAC5 0.358527
    X1276 FAC9 -0.820968
    X1277 OBJ -0.0840757
    X1277 BUDGET 1
    X1277 SEC5 1
    X1277 FAC6 0.979131
    X1277 FAC7 0.0670953
    X1277 FAC10 0.649484
    X1277 FAC13 0.131343
    X1278 OBJ -0.10437
    X1278 BUDGET 1
    X1278 SEC6 1
    X1278 FAC0 -0.178368
    X1279 OBJ -0.128717
    X1279 BUDGET 1
    X1279 SEC7 1
    X1279 FAC0 0.165824
    X1279 FAC1 -0.0427379
    X1279 FAC3 0.143117
    X1279 FAC6 0.135397
    X1279 FAC9 -0.186838
    X1279 FAC11 -0.428439
    X1279 FAC14 -0.159373
    X1280 OBJ -0.139821
    X1280 BUDGET 1
    X1280 SEC8 1
    X1280 FAC0 -0.329947
    X1280 FAC1 -0.259155
    X1280 FAC2 -0.112809
    X1280 FAC4 -0.0458691
    X1280 FAC6 0.272473
    X1280 FAC8 -0.393833
    X1280 FAC10 -0.0121881
    X1281 OBJ -0.0671585
    X1281 BUDGET 1
    X1281 SEC9 1
    X1281 FAC1 0.182112
    X1281 FAC13 -0.626411
    X1282 OBJ -0.0523328
    X1282 BUDGET 1
    X1282 SEC10 1
    X1282 FAC1 -0.218641
    X1282 FAC2 -0.04408
    X1282 FAC3 -0.273084
    X1282 FAC4 0.186551
    X1282 FAC5 0.160186
    X1282 FAC6 -0.207579
    X1282 FAC10 0.27193
    X1283 OBJ -0.066759
    X1283 BUDGET 1
    X1283 SEC11 1
    X1283 FAC1 0.0749892
    X1283 FAC4 -0.196633
    X1283 FAC5 -0.769524
    X1283 FAC6 -0.0619137
    X1283 FAC7 -0.253179
    X1283 FAC10 0.424141
    X1283 FAC14 0.00896293
    X1284 OBJ -0.0397861
    X1284 BUDGET 1
    X1284 SEC0 1
    X1284 FAC6 0.342837
    X1284 FAC9 0.0930221
    X1284 FAC10 -0.0743369
    X1284 FAC11 -0.243616
    X1284 FAC13 0.0181741
    X1284 FAC14 -0.611363
    X1285 OBJ -0.114528
    X1285 BUDGET 1
    X1285 SEC1 1
    X1285 FAC0 -0.640786
    X1285 FAC2 -0.399968
    X1285 FAC3 0.0736056
    X1285 FAC4 -0.169824
    X1285 FAC9 -0.149487
    X1285 FAC12 -0.00691578
    X1285 FAC13 -0.251057
    X1286 OBJ -0.0438682
    X1286 BUDGET 1
    X1286 SEC2 1
    X1286 FAC3 0.157578
    X1286 FAC7 0.00198035
    X1286 FAC14 0.28666
    X1287 OBJ -0.0234357
    X1287 BUDGET 1
    X1287 SEC3 1
    X1287 FAC5 -0.237308
    X1287 FAC10 0.468805
    X1287 FAC11 0.539463
    X1288 OBJ -0.108452
    X1288 BUDGET 1
    X1288 SEC4 1
    X1288 FAC0 -0.582397
    X1288 FAC1 0.195349
    X1288 FAC4 -0.517413
    X1288 FAC7 0.766511
    X1289 OBJ -0.139915
    X1289 BUDGET 1
    X1289 SEC5 1
    X1289 FAC0 -0.0926528
    X1289 FAC8 0.15176
    X1289 FAC12 0.231822
    X1289 FAC13 -0.214726
    X1289 FAC14 0.210677
    X1290 OBJ -0.0771958
    X1290 BUDGET 1
    X1290 SEC6 1
    X1290 FAC2 0.315831
    X1290 FAC3 -0.086637
    X1290 FAC5 0.120108
    X1290 FAC8 0.198744
    X1290 FAC9 0.236353
    X1290 FAC10 0.0459697
    X1290 FAC11 0.194861
    X1291 OBJ -0.0568809
    X1291 BUDGET 1
    X1291 SEC7 1
    X1291 FAC1 -0.165395
    X1291 FAC4 -0.385191
    X1291 FAC5 0.578226
    X1291 FAC11 0.492255
    X1292 OBJ -0.0702418
    X1292 BUDGET 1
    X1292 SEC8 1
    X1292 FAC0 0.306466
    X1292 FAC2 -0.00475579
    X1292 FAC3 -0.135463
    X1292 FAC7 0.0825982
    X1292 FAC10 -0.00634895
    X1293 OBJ -0.131423
    X1293 BUDGET 1
    X1293 SEC9 1
    X1293 FAC2 0.410438
    X1293 FAC4 0.183828
    X1293 FAC5 0.0605992
    X1293 FAC9 -0.0407314
    X1293 FAC10 0.0458023
    X1293 FAC12 0.544969
    X1293 FAC14 -0.389531
    X1294 OBJ -0.0640955
    X1294 BUDGET 1
    X1294 SEC10 1
    X1294 FAC1 0.0504503
    X1294 FAC3 0.127461
    X1294 FAC6 0.0395246
    X1294 FAC7 0.206416
    X1294 FAC9 0.167883
    X1294 FAC10 -0.0214206
    X1294 FAC13 0.341197
    X1295 OBJ -0.0892744
    X1295 BUDGET 1
    X1295 SEC11 1
    X1295 FAC6 0.281015
    X1295 FAC10 0.446597
    X1295 FAC13 -0.171167
    X1295 FAC14 0.122937
    X1296 OBJ -0.131543
    X1296 BUDGET 1
    X1296 SEC0 1
    X1296 FAC4 0.209263
    X1296 FAC6 0.183437
    X1296 FAC13 0.0830353
    X1297 OBJ -0.0234073
    X1297 BUDGET 1
    X1297 SEC1 1
    X1297 FAC8 -0.0804827
    X1298 OBJ -0.141099
    X1298 BUDGET 1
    X1298 SEC2 1
    X1298 FAC3 -0.228699
    X1298 FAC8 -0.183781
    X1298 FAC9 0.473064
    X1298 FAC10 0.279648
    X1298 FAC14 -0.165243
    X1299 OBJ -0.0613753
    X1299 BUDGET 1
    X1299 SEC3 1
    X1299 FAC1 -0.116966
    X1299 FAC2 0.0662717
    X1299 FAC5 -0.0425689
    X1299 FAC7 -0.175722
    X1299 FAC8 -0.400344
    X1299 FAC12 0.160896
    X1299 FAC14 -0.331002
    X1300 OBJ -0.149002
    X1300 BUDGET 1
    X1300 SEC4 1
    X1300 FAC1 0.208243
    X1300 FAC2 0.269275
    X1300 FAC4 0.459667
    X1300 FAC5 0.378758
    X1300 FAC8 -0.052451
    X1300 FAC13 0.150926
    X1301 OBJ -0.12665
    X1301 BUDGET 1
    X1301 SEC5 1
    X1301 FAC1 -0.0103041
    X1301 FAC6 -0.00407863
    X1301 FAC8 0.38529
    X1301 FAC10 -0.0510512
    X1301 FAC11 0.190037
    X1301 FAC12 0.221504
    X1302 OBJ -0.0226267
    X1302 BUDGET 1
    X1302 SEC6 1
    X1302 FAC0 -0.0525435
    X1302 FAC2 -0.0707485
    X1302 FAC6 -0.083886
    X1302 FAC11 0.0348055
    X1302 FAC12 -0.0564429
    X1302 FAC14 0.436548
    X1303 OBJ -0.0934553
    X1303 BUDGET 1
    X1303 SEC7 1
    X1303 FAC0 -0.113841
    X1303 FAC1 -0.361173
    X1303 FAC13 -0.251755
    X1304 OBJ -0.117871
    X1304 BUDGET 1
    X1304 SEC8 1
    X1304 FAC0 0.3866
    X1304 FAC3 0.485656
    X1304 FAC6 0.330819
    X1304 FAC8 -0.229671
    X1304 FAC14 -0.152021
    X1305 OBJ -0.0827744
    X1305 BUDGET 1
    X1305 SEC9 1
    X1305 FAC1 0.291976
    X1305 FAC4 0.503258
    X1305 FAC5 -0.00416854
    X1305 FAC8 -0.153508
    X1305 FAC9 0.0330288
    X1306 OBJ -0.125223
    X1306 BUDGET 1
    X1306 SEC10 1
    X1306 FAC8 0.469159
    X1306 FAC9 -0.488663
    X1306 FAC14 -0.299129
    X1307 OBJ -0.0238731
    X1307 BUDGET 1
    X1307 SEC11 1
    X1307 FAC0 -0.518433
    X1307 FAC1 0.0522208
    X1307 FAC2 -0.477299
    X1307 FAC14 -0.0610327
    X1308 OBJ -0.0880386
    X1308 BUDGET 1
    X1308 SEC0 1
    X1308 FAC0 0.189724
    X1308 FAC5 -0.405174
    X1308 FAC10 -0.0714472
    X1308 FAC12 0.065724
    X1309 OBJ -0.0411768
    X1309 BUDGET 1
    X1309 SEC1 1
    X1309 FAC0 -0.263359
    X1309 FAC1 0.712819
    X1309 FAC3 -0.318144
    X1309 FAC8 0.538616
    X1309 FAC10 0.0250962
    X1309 FAC12 -0.0591427
    X1310 OBJ -0.0294447
    X1310 BUDGET 1
    X1310 SEC2 1
    X1310 FAC1 0.0166715
    X1310 FAC4 -0.0985931
    X1310 FAC6 -0.0204177
    X1310 FAC7 0.157138
    X1310 FAC8 0.156172
    X1311 OBJ -0.124488
    X1311 BUDGET 1
    X1311 SEC3 1
    X1311 FAC0 0.547616
    X1311 FAC2 0.127458
    X1311 FAC3 0.221278
    X1311 FAC4 -0.266544
    X1311 FAC5 0.0114187
    X1311 FAC7 0.0857256
    X1311 FAC12 -0.0117797
    X1311 FAC13 0.134693
    X1312 OBJ -0.0671331
    X1312 BUDGET 1
    X1312 SEC4 1
    X1312 FAC0 -0.112243
    X1312 FAC5 -0.594729
    X1312 FAC6 -0.127248
    X1312 FAC7 -0.108156
    X1312 FAC13 0.0159669
    X1313 OBJ -0.134922
    X1313 BUDGET 1
    X1313 SEC5 1
    X1313 FAC6 -0.130836
    X1313 FAC12 -0.248586
    X1313 FAC13 0.235517
    X1314 OBJ -0.131196
    X1314 BUDGET 1
    X1314 SEC6 1
    X1314 FAC7 -0.215611
    X1314 FAC10 0.0939071
    X1314 FAC12 -0.378098
    X1315 OBJ -0.0292401
    X1315 BUDGET 1
    X1315 SEC7 1
    X1315 FAC8 0.342481
    X1315 FAC9 0.045507
    X1315 FAC11 -0.199887
    X1315 FAC13 0.0067791
    X1316 OBJ -0.105976
    X1316 BUDGET 1
    X1316 SEC8 1
    X1316 FAC0 -0.290255
    X1316 FAC1 0.219725
    X1316 FAC3 0.113441
    X1316 FAC6 0.251806
    X1316 FAC8 -0.170973
    X1316 FAC10 0.397269
    X1317 OBJ -0.112966
    X1317 BUDGET 1
    X1317 SEC9 1
    X1317 FAC1 0.173316
    X1317 FAC3 0.196699
    X1317 FAC6 -0.322602
    X1317 FAC7 0.260138
    X1317 FAC8 0.29299
    X1317 FAC12 0.60806
    X1318 OBJ -0.0674001
    X1318 BUDGET 1
    X1318 SEC10 1
    X1318 FAC0 0.0519301
    X1318 FAC1 -0.12886
    X1318 FAC4 0.416169
    X1318 FAC6 0.269679
    X1318 FAC8 -0.130773
    X1318 FAC13 0.233974
    X1319 OBJ -0.063307
    X1319 BUDGET 1
    X1319 SEC11 1
    X1319 FAC2 -0.00959987
    X1319 FAC4 -0.607946
    X1319 FAC6 -0.0590075
    X1319 FAC7 -0.047272
    X1319 FAC9 0.495348
    X1319 FAC10 -0.322068
    X1319 FAC14 0.100489
    X1320 OBJ -0.057705
    X1320 BUDGET 1
    X1320 SEC0 1
    X1320 FAC1 0.0426121
    X1320 FAC7 0.214457
    X1320 FAC8 -0.155423
    X1320 FAC9 -0.648088
    X1320 FAC11 0.152431
    X1321 OBJ -0.147393
    X1321 BUDGET 1
    X1321 SEC1 1
    X1321 FAC0 0.121897
    X1321 FAC1 0.518894
    X1321 FAC7 -0.357374
    X1321 FAC8 0.587864
    X1321 FAC9 0.420925
    X1321 FAC10 -0.308149
    X1321 FAC11 0.169344
    X1321 FAC13 0.111981
    X1322 OBJ -0.0966442
    X1322 BUDGET 1
    X1322 SEC2 1
    X1322 FAC5 0.256165
    X1322 FAC7 0.194836
    X1322 FAC9 -0.512192
    X1322 FAC12 0.441691
    X1323 OBJ -0.0738159
    X1323 BUDGET 1
    X1323 SEC3 1
    X1323 FAC1 0.53026
    X1323 FAC3 0.0148705
    X1323 FAC4 -0.318225
    X1323 FAC5 -0.188435
    X1323 FAC8 -0.0400495
    X1323 FAC10 -0.105829
    X1323 FAC12 -0.0880282
    X1324 OBJ -0.0236125
    X1324 BUDGET 1
    X1324 SEC4 1
    X1324 FAC0 0.480144
    X1324 FAC1 -0.0996641
    X1324 FAC2 -0.145369
    X1324 FAC7 -0.0177747
    X1324 FAC8 -0.147855
    X1324 FAC9 -0.206411
    X1324 FAC10 0.140549
    X1325 OBJ -0.0252403
    X1325 BUDGET 1
    X1325 SEC5 1
    X1325 FAC4 -0.492893
    X1325 FAC5 0.0388423
    X1325 FAC6 0.20584
    X1326 OBJ -0.0946851
    X1326 BUDGET 1
    X1326 SEC6 1
    X1326 FAC0 -0.271334
    X1326 FAC2 -0.0818044
    X1326 FAC4 -0.416185
    X1326 FAC6 0.0326482
    X1326 FAC8 -0.489365
    X1326 FAC9 -0.132133
    X1326 FAC10 0.302988
    X1326 FAC11 0.130687
    X1326 FAC12 0.146444
    X1327 OBJ -0.147492
    X1327 BUDGET 1
    X1327 SEC7 1
    X1327 FAC7 0.399678
    X1327 FAC9 0.176287
    X1327 FAC10 0.154809
    X1327 FAC12 -0.183349
    X1328 OBJ -0.0417916
    X1328 BUDGET 1
    X1328 SEC8 1
    X1328 FAC4 0.379524
    X1328 FAC7 -0.579823
    X1328 FAC9 0.299165
    X1328 FAC10 0.293497
    X1328 FAC11 -0.478626
    X1328 FAC14 0.122205
    X1329 OBJ -0.100594
    X1329 BUDGET 1
    X1329 SEC9 1
    X1329 FAC3 -0.200479
    X1329 FAC4 0.166358
    X1329 FAC5 0.219495
    X1329 FAC9 0.0204719
    X1330 OBJ -0.133106
    X1330 BUDGET 1
    X1330 SEC10 1
    X1330 FAC1 0.055171
    X1330 FAC5 -0.157857
    X1330 FAC6 0.204958
    X1330 FAC8 -0.111341
    X1330 FAC12 -0.428941
    X1331 OBJ -0.0586937
    X1331 BUDGET 1
    X1331 SEC11 1
    X1331 FAC0 -0.266453
    X1331 FAC8 -0.485884
    X1331 FAC10 -0.0815892
    X1331 FAC11 0.190448
    X1331 FAC13 -0.476574
    X1332 OBJ -0.0430009
    X1332 BUDGET 1
    X1332 SEC0 1
    X1332 FAC1 -0.140371
    X1332 FAC7 0.115812
    X1332 FAC8 0.0908038
    X1332 FAC13 0.5429
    X1332 FAC14 -0.0150538
    X1333 OBJ -0.0995735
    X1333 BUDGET 1
    X1333 SEC1 1
    X1333 FAC1 0.452459
    X1333 FAC5 -0.00403162
    X1333 FAC8 -0.276165
    X1333 FAC11 -0.51801
    X1333 FAC12 -0.260929
    X1333 FAC14 -0.272933
    X1334 OBJ -0.125817
    X1334 BUDGET 1
    X1334 SEC2 1
    X1334 FAC2 0.120235
    X1334 FAC3 0.278178
    X1334 FAC4 -0.0606709
    X1334 FAC5 -0.0519045
    X1334 FAC9 0.0910223
    X1334 FAC10 -0.276922
    X1335 OBJ -0.118597
    X1335 BUDGET 1
    X1335 SEC3 1
    X1335 FAC1 0.262582
    X1335 FAC8 -0.0486764
    X1336 OBJ -0.0888694
    X1336 BUDGET 1
    X1336 SEC4 1
    X1336 FAC2 -0.123448
    X1336 FAC9 0.27795
    X1336 FAC12 -0.399626
    X1337 OBJ -0.0650639
    X1337 BUDGET 1
    X1337 SEC5 1
    X1337 FAC1 0.396314
    X1337 FAC3 0.189825
    X1337 FAC9 -0.0496218
    X1337 FAC11 -0.209271
    X1337 FAC13 0.241474
    X1337 FAC14 0.0674684
    X1338 OBJ -0.114141
    X1338 BUDGET 1
    X1338 SEC6 1
    X1338 FAC0 0.178864
    X1338 FAC4 -0.450598
    X1338 FAC6 0.701508
    X1338 FAC7 -0.312874
    X1339 OBJ -0.0919523
    X1339 BUDGET 1
    X1339 SEC7 1
    X1339 FAC0 0.161147
    X1339 FAC2 -0.695792
    X1339 FAC3 -0.0876204
    X1339 FAC10 0.386803
    X1339 FAC12 1.0177
    X1339 FAC13 0.2345
    X1340 OBJ -0.140685
    X1340 BUDGET 1
    X1340 SEC8 1
    X1340 FAC2 -0.0638312
    X1340 FAC6 -0.389246
    X1340 FAC9 0.130386
    X1341 OBJ -0.128065
    X1341 BUDGET 1
    X1341 SEC9 1
    X1341 FAC0 0.395384
    X1341 FAC1 -0.00856143
    X1341 FAC2 0.178335
    X1341 FAC13 -0.0192
    X1342 OBJ -0.0496524
    X1342 BUDGET 1
    X1342 SEC10 1
    X1342 FAC3 -0.512127
    X1343 OBJ -0.0941736
    X1343 BUDGET 1
    X1343 SEC11 1
    X1343 FAC10 -0.0150891
    X1343 FAC14 0.548579
    X1344 OBJ -0.0300269
    X1344 BUDGET 1
    X1344 SEC0 1
    X1344 FAC8 0.184602
    X1344 FAC11 -0.122168
    X1344 FAC12 -0.148629
    X1344 FAC14 -0.0284231
    X1345 OBJ -0.10243
    X1345 BUDGET 1
    X1345 SEC1 1
    X1345 FAC0 -0.307211
    X1345 FAC3 -0.240219
    X1345 FAC5 0.0534244
    X1345 FAC6 0.565476
    X1345 FAC8 0.284772
    X1345 FAC11 -0.417225
    X1345 FAC12 0.231175
    X1345 FAC14 0.0620638
    X1346 OBJ -0.0217544
    X1346 BUDGET 1
    X1346 SEC2 1
    X1346 FAC3 0.0496105
    X1346 FAC4 0.159426
    X1346 FAC6 0.193923
    X1346 FAC11 0.140259
    X1346 FAC12 0.272291
    X1347 OBJ -0.148007
    X1347 BUDGET 1
    X1347 SEC3 1
    X1347 FAC1 -0.0513859
    X1347 FAC3 -0.030929
    X1347 FAC8 -0.164764
    X1347 FAC9 0.237796
    X1348 OBJ -0.108073
    X1348 BUDGET 1
    X1348 SEC4 1
    X1348 FAC0 -0.221163
    X1348 FAC9 0.271754
    X1348 FAC10 -0.184133
    X1348 FAC12 0.381443
    X1349 OBJ -0.0642491
    X1349 BUDGET 1
    X1349 SEC5 1
    X1349 FAC0 -0.34088
    X1349 FAC3 0.314876
    X1349 FAC4 0.0432203
    X1349 FAC7 0.218671
    X1350 OBJ -0.0453869
    X1350 BUDGET 1
    X1350 SEC6 1
    X1350 FAC1 0.161559
    X1350 FAC3 0.509423
    X1350 FAC8 -0.305341
    X1350 FAC10 0.302331
    X1350 FAC13 0.0236307
    X1351 OBJ -0.0328415
    X1351 BUDGET 1
    X1351 SEC7 1
    X1351 FAC2 -0.0843441
    X1351 FAC4 -0.231712
    X1351 FAC7 -0.264071
    X1351 FAC11 0.404437
    X1351 FAC12 0.570199
    X1351 FAC14 -0.338158
    X1352 OBJ -0.0769615
    X1352 BUDGET 1
    X1352 SEC8 1
    X1352 FAC2 -0.102191
    X1352 FAC5 0.0121289
    X1352 FAC6 0.339063
    X1352 FAC9 0.293712
    X1352 FAC12 0.431191
    X1352 FAC13 -0.0384266
    X1353 OBJ -0.141158
    X1353 BUDGET 1
    X1353 SEC9 1
    X1353 FAC0 0.174933
    X1353 FAC2 0.220956
    X1353 FAC4 -0.229285
    X1353 FAC12 0.650784
    X1354 OBJ -0.0616891
    X1354 BUDGET 1
    X1354 SEC10 1
    X1354 FAC0 0.000518577
    X1354 FAC3 -0.325757
    X1354 FAC6 0.545145
    X1354 FAC11 -0.769496
    X1354 FAC13 -0.313195
    X1354 FAC14 0.401563
    X1355 OBJ -0.132635
    X1355 BUDGET 1
    X1355 SEC11 1
    X1355 FAC0 -0.251939
    X1355 FAC2 0.241606
    X1355 FAC3 -0.11519
    X1355 FAC4 0.264463
    X1355 FAC5 -0.0629829
    X1355 FAC6 0.512827
    X1355 FAC13 0.222584
    X1356 OBJ -0.0551508
    X1356 BUDGET 1
    X1356 SEC0 1
    X1356 FAC2 -0.196072
    X1356 FAC3 -0.220211
    X1356 FAC4 0.446153
    X1356 FAC11 0.222457
    X1356 FAC13 -0.561229
    X1357 OBJ -0.107498
    X1357 BUDGET 1
    X1357 SEC1 1
    X1357 FAC4 0.0150466
    X1357 FAC9 0.087098
    X1357 FAC10 -0.249185
    X1357 FAC12 0.0320536
    X1357 FAC13 0.123255
    X1358 OBJ -0.0772083
    X1358 BUDGET 1
    X1358 SEC2 1
    X1358 FAC1 0.222329
    X1358 FAC6 -0.439996
    X1358 FAC8 0.244103
    X1358 FAC10 -0.091725
    X1358 FAC12 0.0755269
    X1358 FAC13 0.249043
    X1359 OBJ -0.112148
    X1359 BUDGET 1
    X1359 SEC3 1
    X1359 FAC0 0.347353
    X1359 FAC8 0.0399472
    X1359 FAC11 0.713599
    X1359 FAC12 -0.0277983
    X1360 OBJ -0.125465
    X1360 BUDGET 1
    X1360 SEC4 1
    X1360 FAC6 -0.279805
    X1360 FAC7 -0.628499
    X1360 FAC11 -0.0422899
    X1361 OBJ -0.025582
    X1361 BUDGET 1
    X1361 SEC5 1
    X1361 FAC1 0.130091
    X1361 FAC2 0.0194476
    X1361 FAC3 0.014346
    X1361 FAC4 0.250984
    X1361 FAC14 0.152024
    X1362 OBJ -0.0460269
    X1362 BUDGET 1
    X1362 SEC6 1
    X1362 FAC0 -0.124191
    X1362 FAC1 0.102832
    X1362 FAC5 0.277979
    X1362 FAC7 0.444264
    X1362 FAC8 -0.0403271
    X1362 FAC9 -0.0307897
    X1363 OBJ -0.135601
    X1363 BUDGET 1
    X1363 SEC7 1
    X1363 FAC0 0.41056
    X1363 FAC4 -0.155409
    X1363 FAC7 0.175406
    X1364 OBJ -0.126664
    X1364 BUDGET 1
    X1364 SEC8 1
    X1364 FAC0 0.304788
    X1364 FAC1 0.0779874
    X1364 FAC3 0.436557
    X1364 FAC5 -0.545114
    X1364 FAC9 0.429729
    X1364 FAC14 -0.0368866
    X1365 OBJ -0.0827929
    X1365 BUDGET 1
    X1365 SEC9 1
    X1365 FAC1 0.324226
    X1365 FAC2 -0.0863523
    X1365 FAC4 0.355039
    X1365 FAC6 0.537203
    X1365 FAC8 -0.274387
    X1365 FAC11 -0.0366136
    X1366 OBJ -0.139373
    X1366 BUDGET 1
    X1366 SEC10 1
    X1366 FAC8 0.357277
    X1366 FAC11 0.275039
    X1366 FAC12 0.96693
    X1366 FAC14 -0.183793
    X1367 OBJ -0.0742129
    X1367 BUDGET 1
    X1367 SEC11 1
    X1367 FAC3 -0.0878662
    X1367 FAC11 -0.0615268
    X1368 OBJ -0.0718915
    X1368 BUDGET 1
    X1368 SEC0 1
    X1368 FAC13 0.0679629
    X1369 OBJ -0.033956
    X1369 BUDGET 1
    X1369 SEC1 1
    X1369 FAC2 0.290376
    X1369 FAC4 0.361045
    X1369 FAC13 0.104519
    X1370 OBJ -0.148376
    X1370 BUDGET 1
    X1370 SEC2 1
    X1370 FAC4 -0.0187049
    X1370 FAC5 0.426781
    X1370 FAC6 0.0514786
    X1370 FAC8 0.027705
    X1370 FAC9 -0.241942
    X1370 FAC10 -0.0520505
    X1370 FAC11 -0.465355
    X1370 FAC12 0.119482
    X1371 OBJ -0.112822
    X1371 BUDGET 1
    X1371 SEC3 1
    X1371 FAC0 -0.23204
    X1371 FAC10 0.549875
    X1372 OBJ -0.109386
    X1372 BUDGET 1
    X1372 SEC4 1
    X1372 FAC6 0.0188391
    X1372 FAC7 0.480398
    X1372 FAC9 -0.369787
    X1372 FAC11 0.44311
    X1372 FAC12 -0.00184625
    X1373 OBJ -0.0450984
    X1373 BUDGET 1
    X1373 SEC5 1
    X1373 FAC0 -0.0579048
    X1373 FAC3 0.455154
    X1373 FAC5 -0.348479
    X1373 FAC9 -0.296729
    X1373 FAC10 -0.20941
    X1374 OBJ -0.0461687
    X1374 BUDGET 1
    X1374 SEC6 1
    X1374 FAC4 -0.241888
    X1374 FAC7 -0.143774
    X1375 OBJ -0.0749206
    X1375 BUDGET 1
    X1375 SEC7 1
    X1375 FAC0 0.0538126
    X1375 FAC6 0.20609
    X1375 FAC8 0.314578
    X1375 FAC12 -0.501263
    X1376 OBJ -0.0214637
    X1376 BUDGET 1
    X1376 SEC8 1
    X1376 FAC5 -0.260628
    X1377 OBJ -0.149239
    X1377 BUDGET 1
    X1377 SEC9 1
    X1377 FAC0 0.266195
    X1377 FAC1 -0.124619
    X1377 FAC3 -0.0718781
    X1377 FAC5 -0.211048
    X1377 FAC12 -0.488852
    X1378 OBJ -0.0257187
    X1378 BUDGET 1
    X1378 SEC10 1
    X1378 FAC1 -0.0493677
    X1378 FAC3 0.122552
    X1378 FAC11 0.0591227
    X1378 FAC13 0.482641
    X1379 OBJ -0.0950171
    X1379 BUDGET 1
    X1379 SEC11 1
    X1379 FAC1 -0.09998
    X1379 FAC3 0.00554393
    X1379 FAC7 0.0666059
    X1379 FAC10 -0.181285
    X1379 FAC12 0.0659504
    X1379 FAC14 0.00396213
    X1380 OBJ -0.0838937
    X1380 BUDGET 1
    X1380 SEC0 1
    X1380 FAC4 0.184837
    X1380 FAC7 -0.105447
    X1380 FAC11 -0.292024
    X1381 OBJ -0.0267737
    X1381 BUDGET 1
    X1381 SEC1 1
    X1381 FAC3 0.344355
    X1381 FAC7 0.146444
    X1381 FAC11 0.0397527
    X1381 FAC13 0.289212
    X1382 OBJ -0.0912617
    X1382 BUDGET 1
    X1382 SEC2 1
    X1382 FAC1 0.333715
    X1382 FAC4 0.0373785
    X1382 FAC6 -0.140578
    X1382 FAC7 0.0717792
    X1383 OBJ -0.0593235
    X1383 BUDGET 1
    X1383 SEC3 1
    X1383 FAC2 -0.181055
    X1383 FAC3 -0.0132483
    X1383 FAC5 -0.00983468
    X1383 FAC6 0.856484
    X1383 FAC11 -0.0156551
    X1383 FAC13 -0.295433
    X1383 FAC14 -0.465593
    X1384 OBJ -0.134967
    X1384 BUDGET 1
    X1384 SEC4 1
    X1384 FAC0 -0.0284957
    X1384 FAC1 -0.26938
    X1384 FAC2 -0.128254
    X1384 FAC3 0.305697
    X1384 FAC4 0.438192
    X1384 FAC6 -0.0557567
    X1384 FAC10 -0.363303
    X1384 FAC11 0.568849
    X1384 FAC14 0.0568062
    X1385 OBJ -0.103672
    X1385 BUDGET 1
    X1385 SEC5 1
    X1385 FAC0 0.31939
    X1385 FAC1 0.106637
    X1385 FAC10 -0.106463
    X1386 OBJ -0.0260372
    X1386 BUDGET 1
    X1386 SEC6 1
    X1386 FAC0 -0.28695
    X1386 FAC3 -0.122035
    X1386 FAC4 -0.455782
    X1386 FAC7 -0.180791
    X1386 FAC8 -0.0332721
    X1386 FAC9 0.272163
    X1387 OBJ -0.0392661
    X1387 BUDGET 1
    X1387 SEC7 1
    X1387 FAC4 -0.121902
    X1387 FAC14 0.0332007
    X1388 OBJ -0.0978581
    X1388 BUDGET 1
    X1388 SEC8 1
    X1388 FAC2 -0.58602
    X1388 FAC3 0.386217
    X1388 FAC4 -0.169315
    X1388 FAC9 -0.419774
    X1389 OBJ -0.0683877
    X1389 BUDGET 1
    X1389 SEC9 1
    X1389 FAC3 -0.369792
    X1389 FAC4 -0.0505545
    X1389 FAC6 -0.131196
    X1389 FAC11 -0.382228
    X1389 FAC12 -0.173326
    X1390 OBJ -0.145796
    X1390 BUDGET 1
    X1390 SEC10 1
    X1390 FAC0 0.406419
    X1390 FAC1 0.498126
    X1390 FAC6 -0.381797
    X1390 FAC14 -0.152944
    X1391 OBJ -0.135861
    X1391 BUDGET 1
    X1391 SEC11 1
    X1391 FAC2 -0.0138495
    X1391 FAC5 -0.0398187
    X1391 FAC7 0.502701
    X1391 FAC9 0.535534
    X1391 FAC10 0.217556
    X1391 FAC12 0.312988
    X1392 OBJ -0.0358781
    X1392 BUDGET 1
    X1392 SEC0 1
    X1392 FAC2 -0.308521
    X1392 FAC3 0.058315
    X1392 FAC4 -0.323598
    X1392 FAC6 -0.137893
    X1392 FAC8 -0.949181
    X1392 FAC10 -0.125621
    X1392 FAC13 -0.0778126
    X1393 OBJ -0.0550577
    X1393 BUDGET 1
    X1393 SEC1 1
    X1393 FAC3 -0.22389
    X1393 FAC6 0.126731
    X1393 FAC7 -0.194208
    X1393 FAC8 0.284453
    X1393 FAC10 0.210641
    X1393 FAC12 -0.0540885
    X1394 OBJ -0.0242519
    X1394 BUDGET 1
    X1394 SEC2 1
    X1394 FAC2 0.278133
    X1394 FAC10 -0.679243
    X1394 FAC11 0.387101
    X1394 FAC12 -0.126786
    X1394 FAC13 -0.121303
    X1395 OBJ -0.1006
    X1395 BUDGET 1
    X1395 SEC3 1
    X1395 FAC1 0.0623758
    X1395 FAC7 0.491683
    X1395 FAC11 0.676715
    X1395 FAC12 0.501372
    X1396 OBJ -0.141186
    X1396 BUDGET 1
    X1396 SEC4 1
    X1396 FAC2 0.246345
    X1396 FAC4 -0.584942
    X1396 FAC8 -0.123629
    X1396 FAC9 0.27681
    X1396 FAC12 -0.385016
    X1396 FAC13 -0.00851146
    X1397 OBJ -0.0847601
    X1397 BUDGET 1
    X1397 SEC5 1
    X1397 FAC6 0.242794
    X1397 FAC8 -0.0244344
    X1397 FAC11 0.0483076
    X1397 FAC12 0.170523
    X1398 OBJ -0.0531947
    X1398 BUDGET 1
    X1398 SEC6 1
    X1398 FAC4 0.0794178
    X1398 FAC6 0.133234
    X1398 FAC7 -0.516286
    X1398 FAC11 -0.0412324
    X1399 OBJ -0.039001
    X1399 BUDGET 1
    X1399 SEC7 1
    X1399 FAC6 -0.187897
    X1399 FAC8 -0.0875008
    X1399 FAC9 0.393858
    X1399 FAC11 0.0272567
    X1399 FAC14 0.118651
    X1400 OBJ -0.0638884
    X1400 BUDGET 1
    X1400 SEC8 1
    X1400 FAC2 -0.0997773
    X1400 FAC5 0.0447453
    X1400 FAC9 -0.873996
    X1400 FAC12 0.424113
    X1401 OBJ -0.0215648
    X1401 BUDGET 1
    X1401 SEC9 1
    X1401 FAC3 0.136252
    X1401 FAC7 -0.0460364
    X1402 OBJ -0.112986
    X1402 BUDGET 1
    X1402 SEC10 1
    X1402 FAC0 -0.138104
    X1402 FAC2 -0.218297
    X1402 FAC3 0.680348
    X1402 FAC4 0.235047
    X1402 FAC6 -0.203477
    X1402 FAC7 -0.192285
    X1402 FAC9 0.208294
    X1402 FAC13 -0.344295
    X1403 OBJ -0.0627262
    X1403 BUDGET 1
    X1403 SEC11 1
    X1403 FAC0 -0.37901
    X1403 FAC6 0.368109
    X1403 FAC7 -0.453245
    X1403 FAC10 0.0908182
    X1404 OBJ -0.0799953
    X1404 BUDGET 1
    X1404 SEC0 1
    X1404 FAC5 0.19072
    X1404 FAC13 0.24569
    X1404 FAC14 -0.346584
    X1405 OBJ -0.138614
    X1405 BUDGET 1
    X1405 SEC1 1
    X1405 FAC1 -0.190424
    X1405 FAC5 0.373987
    X1405 FAC8 -0.0193055
    X1405 FAC11 0.102199
    X1405 FAC13 0.41562
    X1406 OBJ -0.108271
    X1406 BUDGET 1
    X1406 SEC2 1
    X1406 FAC2 0.395498
    X1406 FAC4 0.31753
    X1406 FAC8 -0.350759
    X1406 FAC9 -0.378469
    X1406 FAC11 -0.0603242
    X1406 FAC12 0.607617
    X1407 OBJ -0.0407953
    X1407 BUDGET 1
    X1407 SEC3 1
    X1407 FAC2 -0.208528
    X1407 FAC8 0.138758
    X1407 FAC11 -0.33377
    X1407 FAC12 0.136167
    X1407 FAC13 0.184207
    X1407 FAC14 0.397619
    X1408 OBJ -0.104375
    X1408 BUDGET 1
    X1408 SEC4 1
    X1408 FAC2 -0.0320571
    X1408 FAC4 0.151316
    X1408 FAC5 0.221864
    X1408 FAC11 -0.0697973
    X1408 FAC12 -0.220234
    X1408 FAC14 0.112697
    X1409 OBJ -0.106506
    X1409 BUDGET 1
    X1409 SEC5 1
    X1409 FAC1 0.100659
    X1409 FAC7 -0.0121639
    X1409 FAC9 0.153642
    X1409 FAC13 0.115573
    X1410 OBJ -0.0713953
    X1410 BUDGET 1
    X1410 SEC6 1
    X1410 FAC5 0.0876106
    X1410 FAC7 0.137379
    X1410 FAC9 -0.131803
    X1410 FAC10 -0.345831
    X1411 OBJ -0.119687
    X1411 BUDGET 1
    X1411 SEC7 1
    X1411 FAC2 0.0678236
    X1411 FAC3 0.0759651
    X1411 FAC4 -0.040016
    X1411 FAC12 -0.150631
    X1412 OBJ -0.0873241
    X1412 BUDGET 1
    X1412 SEC8 1
    X1412 FAC1 0.326326
    X1412 FAC5 -0.0881719
    X1412 FAC8 -0.34278
    X1412 FAC9 0.536097
    X1412 FAC10 -0.287677
    X1412 FAC12 0.295097
    X1412 FAC13 0.146252
    X1412 FAC14 -0.170248
    X1413 OBJ -0.125003
    X1413 BUDGET 1
    X1413 SEC9 1
    X1413 FAC1 -0.386133
    X1413 FAC8 -0.379181
    X1413 FAC11 0.0330015
    X1413 FAC12 -0.016353
    X1414 OBJ -0.12471
    X1414 BUDGET 1
    X1414 SEC10 1
    X1414 FAC6 0.328456
    X1414 FAC11 0.165461
    X1414 FAC12 0.132035
    X1415 OBJ -0.0333612
    X1415 BUDGET 1
    X1415 SEC11 1
    X1415 FAC5 0.511142
    X1415 FAC6 0.332224
    X1415 FAC8 0.0507261
    X1415 FAC10 0.0036224
    X1415 FAC14 -0.0835292
    X1416 OBJ -0.029856
    X1416 BUDGET 1
    X1416 SEC0 1
    X1416 FAC4 -0.328177
    X1416 FAC5 -0.39438
    X1416 FAC6 0.112279
    X1416 FAC9 0.0820227
    X1417 OBJ -0.0816436
    X1417 BUDGET 1
    X1417 SEC1 1
    X1417 FAC1 -0.07381
    X1417 FAC6 -0.0450863
    X1418 OBJ -0.0909026
    X1418 BUDGET 1
    X1418 SEC2 1
    X1418 FAC1 0.184923
    X1418 FAC2 -0.226268
    X1418 FAC4 -0.242886
    X1418 FAC5 0.340963
    X1418 FAC6 -0.414067
    X1418 FAC11 0.106702
    X1418 FAC14 -0.598462
    X1419 OBJ -0.131052
    X1419 BUDGET 1
    X1419 SEC3 1
    X1419 FAC6 0.0763623
    X1419 FAC8 -0.372009
    X1420 OBJ -0.0888598
    X1420 BUDGET 1
    X1420 SEC4 1
    X1420 FAC0 0.130979
    X1420 FAC2 0.189572
    X1420 FAC3 0.269007
    X1420 FAC4 -1.01987
    X1420 FAC7 0.593761
    X1420 FAC8 0.21879
    X1420 FAC10 -0.17515
    X1421 OBJ -0.028001
    X1421 BUDGET 1
    X1421 SEC5 1
    X1421 FAC3 -0.104984
    X1421 FAC11 0.0572566
    X1421 FAC12 0.928611
    X1422 OBJ -0.0410286
    X1422 BUDGET 1
    X1422 SEC6 1
    X1422 FAC0 0.0347212
    X1422 FAC4 0.303444
    X1422 FAC8 -0.254058
    X1422 FAC11 -0.257794
    X1422 FAC12 -0.182008
    X1422 FAC13 -0.0283018
    X1423 OBJ -0.0681125
    X1423 BUDGET 1
    X1423 SEC7 1
    X1423 FAC0 -0.169641
    X1423 FAC3 0.26053
    X1423 FAC5 -0.150606
    X1423 FAC7 -0.402851
    X1423 FAC9 0.469775
    X1424 OBJ -0.146174
    X1424 BUDGET 1
    X1424 SEC8 1
    X1424 FAC0 -0.275867
    X1424 FAC3 -0.529935
    X1424 FAC4 0.234626
    X1424 FAC6 0.15537
    X1424 FAC9 -0.407506
    X1424 FAC10 -0.288876
    X1424 FAC11 -0.368202
    X1424 FAC14 -0.201359
    X1425 OBJ -0.0837564
    X1425 BUDGET 1
    X1425 SEC9 1
    X1425 FAC4 -0.116783
    X1425 FAC5 0.0443923
    X1425 FAC6 0.40842
    X1425 FAC9 -0.0895914
    X1425 FAC14 0.148027
    X1426 OBJ -0.0750158
    X1426 BUDGET 1
    X1426 SEC10 1
    X1426 FAC6 0.619982
    X1426 FAC8 0.0677027
    X1426 FAC11 -0.363568
    X1426 FAC13 -0.239289
    X1427 OBJ -0.0508111
    X1427 BUDGET 1
    X1427 SEC11 1
    X1427 FAC4 0.338526
    X1427 FAC8 0.182585
    X1427 FAC10 -0.319433
    X1427 FAC11 -0.00866501
    X1427 FAC12 0.521689
    X1428 OBJ -0.0797751
    X1428 BUDGET 1
    X1428 SEC0 1
    X1428 FAC5 0.168554
    X1428 FAC7 -0.024739
    X1428 FAC11 0.131813
    X1428 FAC12 -0.174543
    X1429 OBJ -0.0685712
    X1429 BUDGET 1
    X1429 SEC1 1
    X1429 FAC8 -0.03017
    X1429 FAC9 -0.251787
    X1429 FAC10 -0.0237083
    X1429 FAC13 -0.384803
    X1429 FAC14 -0.431606
    X1430 OBJ -0.114383
    X1430 BUDGET 1
    X1430 SEC2 1
    X1430 FAC4 0.0070484
    X1430 FAC6 0.271426
    X1430 FAC7 0.117298
    X1430 FAC8 -0.202226
    X1430 FAC12 0.161372
    X1430 FAC14 0.595649
    X1431 OBJ -0.113585
    X1431 BUDGET 1
    X1431 SEC3 1
    X1431 FAC3 0.0204233
    X1431 FAC9 -0.0166946
    X1431 FAC11 0.0521964
    X1432 OBJ -0.0824032
    X1432 BUDGET 1
    X1432 SEC4 1
    X1432 FAC2 -0.294288
    X1432 FAC8 0.185967
    X1432 FAC10 -0.302664
    X1432 FAC11 -0.174112
    X1432 FAC12 0.166204
    X1432 FAC13 -0.0233854
    X1433 OBJ -0.0698074
    X1433 BUDGET 1
    X1433 SEC5 1
    X1433 FAC7 -0.170093
    X1434 OBJ -0.13307
    X1434 BUDGET 1
    X1434 SEC6 1
    X1434 FAC5 -0.160191
    X1434 FAC9 0.400928
    X1434 FAC11 -0.0349743
    X1434 FAC12 0.0349441
    X1435 OBJ -0.146292
    X1435 BUDGET 1
    X1435 SEC7 1
    X1435 FAC5 -0.0409814
    X1436 OBJ -0.0270921
    X1436 BUDGET 1
    X1436 SEC8 1
    X1436 FAC4 -0.526547
    X1436 FAC9 0.322672
    X1437 OBJ -0.0863625
    X1437 BUDGET 1
    X1437 SEC9 1
    X1437 FAC10 -0.334291
    X1437 FAC13 0.482524
    X1438 OBJ -0.0468233
    X1438 BUDGET 1
    X1438 SEC10 1
    X1438 FAC0 -0.30272
    X1438 FAC1 -0.00063905
    X1438 FAC2 -0.185333
    X1438 FAC5 -0.220839
    X1438 FAC6 0.135831
    X1438 FAC8 0.00875494
    X1438 FAC9 -0.372983
    X1439 OBJ -0.105903
    X1439 BUDGET 1
    X1439 SEC11 1
    X1439 FAC1 0.30228
    X1439 FAC3 0.111022
    X1439 FAC6 0.393512
    X1439 FAC11 -0.669224
    X1439 FAC12 -0.0223403
    X1440 OBJ -0.0541912
    X1440 BUDGET 1
    X1440 SEC0 1
    X1440 FAC2 0.0143048
    X1440 FAC5 0.0620991
    X1440 FAC6 0.15998
    X1441 OBJ -0.0397474
    X1441 BUDGET 1
    X1441 SEC1 1
    X1441 FAC2 -0.633197
    X1441 FAC3 0.264098
    X1441 FAC4 0.0869078
    X1441 FAC5 -0.470619
    X1441 FAC7 -0.0373877
    X1441 FAC8 0.19574
    X1441 FAC10 0.303807
    X1441 FAC12 -0.0752485
    X1441 FAC13 0.220145
    X1442 OBJ -0.03116
    X1442 BUDGET 1
    X1442 SEC2 1
    X1442 FAC2 0.142269
    X1442 FAC6 0.127068
    X1442 FAC11 0.193714
    X1442 FAC12 0.04347
    X1443 OBJ -0.109666
    X1443 BUDGET 1
    X1443 SEC3 1
    X1443 FAC0 0.127651
    X1443 FAC9 0.0245705
    X1443 FAC11 0.241024
    X1443 FAC12 -0.269425
    X1443 FAC14 -0.412396
    X1444 OBJ -0.0673847
    X1444 BUDGET 1
    X1444 SEC4 1
    X1444 FAC0 -0.351624
    X1444 FAC2 0.103651
    X1444 FAC5 -0.0728621
    X1444 FAC10 -0.15313
    X1445 OBJ -0.101506
    X1445 BUDGET 1
    X1445 SEC5 1
    X1445 FAC0 0.102693
    X1445 FAC1 -0.0129096
    X1445 FAC2 0.0550775
    X1445 FAC4 0.0446599
    X1445 FAC11 -0.0762626
    X1445 FAC12 0.179303
    X1446 OBJ -0.0725646
    X1446 BUDGET 1
    X1446 SEC6 1
    X1446 FAC4 -0.509679
    X1446 FAC5 0.112584
    X1446 FAC9 0.159975
    X1446 FAC10 -0.0398451
    X1447 OBJ -0.105263
    X1447 BUDGET 1
    X1447 SEC7 1
    X1447 FAC0 0.489098
    X1447 FAC1 -0.140195
    X1447 FAC3 -0.207262
    X1447 FAC4 0.389576
    X1447 FAC9 0.0675293
    X1448 OBJ -0.0646924
    X1448 BUDGET 1
    X1448 SEC8 1
    X1448 FAC0 0.214755
    X1448 FAC1 -0.208605
    X1448 FAC8 -0.255394
    X1448 FAC10 0.425109
    X1448 FAC11 -0.199076
    X1449 OBJ -0.0958673
    X1449 BUDGET 1
    X1449 SEC9 1
    X1449 FAC0 0.501437
    X1449 FAC8 -0.60287
    X1450 OBJ -0.0447591
    X1450 BUDGET 1
    X1450 SEC10 1
    X1450 FAC0 -0.171753
    X1450 FAC3 -0.126727
    X1450 FAC4 -0.0777077
    X1450 FAC9 -0.0143838
    X1450 FAC12 -0.0473386
    X1451 OBJ -0.127312
    X1451 BUDGET 1
    X1451 SEC11 1
    X1451 FAC5 -0.0773877
    X1451 FAC7 -0.0640911
    X1451 FAC14 -0.0708023
    X1452 OBJ -0.109153
    X1452 BUDGET 1
    X1452 SEC0 1
    X1452 FAC7 0.186457
    X1452 FAC8 0.029865
    X1452 FAC9 -0.117728
    X1453 OBJ -0.0357581
    X1453 BUDGET 1
    X1453 SEC1 1
    X1453 FAC0 -0.277331
    X1453 FAC1 0.289246
    X1453 FAC2 -0.313027
    X1453 FAC6 -0.0226085
    X1453 FAC7 -0.333797
    X1453 FAC9 -0.112817
    X1453 FAC14 0.136951
    X1454 OBJ -0.103708
    X1454 BUDGET 1
    X1454 SEC2 1
    X1454 FAC0 0.411179
    X1454 FAC1 -0.228029
    X1454 FAC3 -0.173967
    X1454 FAC5 -0.57551
    X1454 FAC10 -0.0529922
    X1454 FAC13 -0.166964
    X1455 OBJ -0.0519408
    X1455 BUDGET 1
    X1455 SEC3 1
    X1455 FAC1 -0.246209
    X1455 FAC3 -0.297662
    X1455 FAC4 -0.218127
    X1455 FAC10 -0.128836
    X1456 OBJ -0.0544578
    X1456 BUDGET 1
    X1456 SEC4 1
    X1456 FAC0 0.0031949
    X1456 FAC1 0.185816
    X1456 FAC5 0.146578
    X1456 FAC7 0.077366
    X1456 FAC9 0.262741
    X1456 FAC13 0.157158
    X1457 OBJ -0.14932
    X1457 BUDGET 1
    X1457 SEC5 1
    X1457 FAC0 0.120152
    X1457 FAC1 -0.0449079
    X1457 FAC3 -0.346485
    X1457 FAC4 -0.0196517
    X1457 FAC6 -0.112661
    X1457 FAC9 -0.0213336
    X1457 FAC11 -0.60287
    X1457 FAC13 -0.00940116
    X1458 OBJ -0.128277
    X1458 BUDGET 1
    X1458 SEC6 1
    X1458 FAC7 0.052288
    X1458 FAC8 0.21593
    X1458 FAC10 0.0769748
    X1458 FAC11 0.102177
    X1459 OBJ -0.126485
    X1459 BUDGET 1
    X1459 SEC7 1
    X1459 FAC3 0.0454958
    X1459 FAC4 0.0950426
    X1459 FAC5 0.693259
    X1459 FAC8 -0.287651
    X1459 FAC12 -0.142042
    X1459 FAC13 -0.25211
    X1460 OBJ -0.0887483
    X1460 BUDGET 1
    X1460 SEC8 1
    X1460 FAC0 0.109913
    X1460 FAC2 -0.320453
    X1460 FAC3 0.0791738
    X1460 FAC4 0.622711
    X1460 FAC5 0.340567
    X1460 FAC6 -0.00722342
    X1460 FAC10 -0.489075
    X1460 FAC11 0.0402752
    X1461 OBJ -0.0531275
    X1461 BUDGET 1
    X1461 SEC9 1
    X1461 FAC1 -0.240078
    X1461 FAC2 -0.347784
    X1462 OBJ -0.132976
    X1462 BUDGET 1
    X1462 SEC10 1
    X1462 FAC6 0.256819
    X1462 FAC8 -0.268656
    X1462 FAC13 0.261092
    X1463 OBJ -0.0902126
    X1463 BUDGET 1
    X1463 SEC11 1
    X1463 FAC11 -0.225073
    X1463 FAC12 0.127354
    X1464 OBJ -0.0207693
    X1464 BUDGET 1
    X1464 SEC0 1
    X1464 FAC2 -0.35899
    X1464 FAC10 -0.313792
    X1464 FAC12 0.102836
    X1465 OBJ -0.0363619
    X1465 BUDGET 1
    X1465 SEC1 1
    X1465 FAC5 -0.646097
    X1465 FAC9 0.355623
    X1465 FAC10 -0.0466966
    X1465 FAC13 -0.312682
    X1466 OBJ -0.138914
    X1466 BUDGET 1
    X1466 SEC2 1
    X1466 FAC7 -0.117516
    X1466 FAC8 -0.730718
    X1466 FAC10 -0.257197
    X1467 OBJ -0.0845023
    X1467 BUDGET 1
    X1467 SEC3 1
    X1467 FAC1 0.0619468
    X1467 FAC5 -0.307779
    X1467 FAC10 0.527258
    X1467 FAC13 0.263957
    X1468 OBJ -0.0935842
    X1468 BUDGET 1
    X1468 SEC4 1
    X1468 FAC2 -0.661223
    X1468 FAC7 0.0610906
    X1468 FAC9 0.0176097
    X1468 FAC12 0.460269
    X1468 FAC13 0.421444
    X1469 OBJ -0.139593
    X1469 BUDGET 1
    X1469 SEC5 1
    X1469 FAC2 0.240937
    X1469 FAC6 0.320318
    X1469 FAC8 -0.306261
    X1469 FAC9 -0.25953
    X1469 FAC13 0.0530455
    X1469 FAC14 -0.24876
    X1470 OBJ -0.0800317
    X1470 BUDGET 1
    X1470 SEC6 1
    X1470 FAC0 -0.438356
    X1470 FAC3 0.266746
    X1470 FAC6 0.142397
    X1470 FAC12 -0.0145019
    X1470 FAC14 -0.0862118
    X1471 OBJ -0.118879
    X1471 BUDGET 1
    X1471 SEC7 1
    X1471 FAC0 0.321023
    X1471 FAC1 -0.140303
    X1471 FAC13 0.0633292
    X1472 OBJ -0.0905221
    X1472 BUDGET 1
    X1472 SEC8 1
    X1472 FAC11 -0.185535
    X1473 OBJ -0.133638
    X1473 BUDGET 1
    X1473 SEC9 1
    X1473 FAC0 -0.666911
    X1473 FAC1 -0.148701
    X1473 FAC8 0.159769
    X1473 FAC11 -0.468511
    X1473 FAC12 0.554586
    X1473 FAC13 -0.0437026
    X1473 FAC14 0.482904
    X1474 OBJ -0.0277187
    X1474 BUDGET 1
    X1474 SEC10 1
    X1474 FAC2 0.527464
    X1474 FAC4 0.0761295
    X1474 FAC5 0.116756
    X1474 FAC6 0.168378
    X1475 OBJ -0.0296137
    X1475 BUDGET 1
    X1475 SEC11 1
    X1475 FAC0 0.17368
    X1475 FAC8 0.31546
    X1476 OBJ -0.144802
    X1476 BUDGET 1
    X1476 SEC0 1
    X1476 FAC0 -0.0144053
    X1476 FAC4 0.463936
    X1476 FAC6 0.203808
    X1476 FAC7 0.086918
    X1476 FAC9 -0.23769
    X1477 OBJ -0.0582687
    X1477 BUDGET 1
    X1477 SEC1 1
    X1477 FAC4 -0.277035
    X1477 FAC7 -0.101253
    X1477 FAC8 0.249128
    X1477 FAC14 -0.206619
    X1478 OBJ -0.116742
    X1478 BUDGET 1
    X1478 SEC2 1
    X1478 FAC3 -0.489226
    X1478 FAC4 -0.315427
    X1478 FAC10 0.212569
    X1478 FAC11 -0.130208
    X1479 OBJ -0.0935461
    X1479 BUDGET 1
    X1479 SEC3 1
    X1479 FAC5 0.48433
    X1479 FAC7 -0.129199
    X1479 FAC14 -0.287788
    X1480 OBJ -0.0356862
    X1480 BUDGET 1
    X1480 SEC4 1
    X1480 FAC2 0.150477
    X1480 FAC8 -0.0410513
    X1480 FAC11 -0.0047322
    X1480 FAC13 0.0762141
    X1481 OBJ -0.022456
    X1481 BUDGET 1
    X1481 SEC5 1
    X1481 FAC2 0.0100747
    X1481 FAC4 0.476627
    X1481 FAC6 0.146962
    X1481 FAC7 -0.0250407
    X1481 FAC9 -0.0963657
    X1481 FAC10 -0.133041
    X1481 FAC14 -0.325404
    X1482 OBJ -0.149217
    X1482 BUDGET 1
    X1482 SEC6 1
    X1482 FAC0 0.0886291
    X1482 FAC1 0.178757
    X1482 FAC3 0.159866
    X1482 FAC9 0.0488986
    X1482 FAC10 0.00518055
    X1482 FAC11 -0.472939
    X1482 FAC13 0.162277
    X1482 FAC14 0.0989724
    X1483 OBJ -0.0263123
    X1483 BUDGET 1
    X1483 SEC7 1
    X1483 FAC1 -0.330768
    X1483 FAC13 -0.0402256
    X1484 OBJ -0.118849
    X1484 BUDGET 1
    X1484 SEC8 1
    X1484 FAC3 0.0210005
    X1484 FAC6 0.169679
    X1484 FAC7 -0.0944202
    X1484 FAC10 -0.0191268
    X1485 OBJ -0.144765
    X1485 BUDGET 1
    X1485 SEC9 1
    X1486 OBJ -0.0686844
    X1486 BUDGET 1
    X1486 SEC10 1
    X1486 FAC8 -0.29299
    X1487 OBJ -0.0500202
    X1487 BUDGET 1
    X1487 SEC11 1
    X1487 FAC3 0.571732
    X1487 FAC10 0.0387338
    X1487 FAC12 -0.162315
    X1488 OBJ -0.0363054
    X1488 BUDGET 1
    X1488 SEC0 1
    X1488 FAC1 0.347007
    X1488 FAC2 -0.680706
    X1488 FAC3 -0.111493
    X1488 FAC4 -0.12991
    X1488 FAC10 0.0159689
    X1488 FAC11 -0.0138407
    X1488 FAC14 -0.214415
    X1489 OBJ -0.0580848
    X1489 BUDGET 1
    X1489 SEC1 1
    X1489 FAC1 -0.246321
    X1489 FAC6 0.305554
    X1489 FAC7 -0.0377871
    X1489 FAC13 0.103641
    X1490 OBJ -0.0793883
    X1490 BUDGET 1
    X1490 SEC2 1
    X1490 FAC0 -0.0739713
    X1490 FAC8 -0.0332241
    X1490 FAC10 0.223213
    X1490 FAC11 -0.134432
    X1490 FAC12 -0.273946
    X1490 FAC14 0.113605
    X1491 OBJ -0.0257129
    X1491 BUDGET 1
    X1491 SEC3 1
    X1491 FAC2 0.0170036
    X1491 FAC5 0.391894
    X1491 FAC8 -0.00274792
    X1492 OBJ -0.133255
    X1492 BUDGET 1
    X1492 SEC4 1
    X1492 FAC0 -0.080248
    X1492 FAC2 -0.138887
    X1492 FAC4 0.201626
    X1492 FAC5 -0.332811
    X1492 FAC9 0.310491
    X1492 FAC13 -0.188883
    X1493 OBJ -0.0857708
    X1493 BUDGET 1
    X1493 SEC5 1
    X1493 FAC1 0.278484
    X1493 FAC3 0.0879746
    X1493 FAC4 0.266107
    X1493 FAC6 -0.11159
    X1493 FAC7 0.346439
    X1493 FAC9 -0.109926
    X1493 FAC11 0.554675
    X1493 FAC12 -0.154108
    X1493 FAC13 0.460466
    X1494 OBJ -0.0428351
    X1494 BUDGET 1
    X1494 SEC6 1
    X1494 FAC3 -0.0985624
    X1494 FAC6 -0.312194
    X1494 FAC7 0.11311
    X1494 FAC12 -0.0928385
    X1495 OBJ -0.0909945
    X1495 BUDGET 1
    X1495 SEC7 1
    X1495 FAC3 -0.271299
    X1495 FAC6 0.227951
    X1495 FAC7 -0.0302088
    X1495 FAC11 -0.253814
    X1495 FAC12 -0.0898818
    X1495 FAC13 0.106808
    X1496 OBJ -0.140253
    X1496 BUDGET 1
    X1496 SEC8 1
    X1496 FAC0 -0.416537
    X1496 FAC4 -0.0575217
    X1496 FAC8 -0.286742
    X1496 FAC9 0.03401
    X1496 FAC11 0.229906
    X1497 OBJ -0.131395
    X1497 BUDGET 1
    X1497 SEC9 1
    X1497 FAC3 -0.208122
    X1497 FAC4 -0.687324
    X1497 FAC5 -0.0587669
    X1497 FAC6 0.366
    X1498 OBJ -0.116855
    X1498 BUDGET 1
    X1498 SEC10 1
    X1498 FAC1 0.0205766
    X1498 FAC2 -0.248602
    X1498 FAC6 0.0657475
    X1498 FAC12 0.0877542
    X1498 FAC13 -0.105375
    X1499 OBJ -0.0464057
    X1499 BUDGET 1
    X1499 SEC11 1
    X1499 FAC0 0.533424
    X1499 FAC3 -0.629995
    X1499 FAC7 0.0391383
    F0 FAC0 1
    F1 FAC1 1
    F2 FAC2 1
    F3 FAC3 1
    F4 FAC4 1
    F5 FAC5 1
    F6 FAC6 1
    F7 FAC7 1
    F8 FAC8 1
    F9 FAC9 1
    F10 FAC10 1
    F11 FAC11 1
    F12 FAC12 1
    F13 FAC13 1
    F14 FAC14 1
RHS
    RHS BUDGET 1
    RHS SEC0 0.25
    RHS SEC1 0.25
    RHS SEC2 0.25
    RHS SEC3 0.25
    RHS SEC4 0.25
    RHS SEC5 0.25
    RHS SEC6 0.25
    RHS SEC7 0.25
    RHS SEC8 0.25
    RHS SEC9 0.25
    RHS SEC10 0.25
    RHS SEC11 0.25
BOUNDS
 UP BND X0 0.05
 UP BND X1 0.05
 UP BND X2 0.05
 UP BND X3 0.05
 UP BND X4 0.05
 UP BND X5 0.05
 UP BND X6 0.05
 UP BND X7 0.05
 UP BND X8 0.05
 UP BND X9 0.05
 UP BND X10 0.05
 UP BND X11 0.05
 UP BND X12 0.05
 UP BND X13 0.05
 UP BND X14 0.05
 UP BND X15 0.05
 UP BND X16 0.05
 UP BND X17 0.05
 UP BND X18 0.05
 UP BND X19 0.05
 UP BND X20 0.05
 UP BND X21 0.05
 UP BND X22 0.05
 UP BND X23 0.05
 UP BND X24 0.05
 UP BND X25 0.05
 UP BND X26 0.05
 UP BND X27 0.05
 UP BND X28 0.05
 UP BND X29 0.05
 UP BND X30 0.05
 UP BND X31 0.05
 UP BND X32 0.05
 UP BND X33 0.05
 UP BND X34 0.05
 UP BND X35 0.05
 UP BND X36 0.05
 UP BND X37 0.05
 UP BND X38 0.05
 UP BND X39 0.05
 UP BND X40 0.05
 UP BND X41 0.05
 UP BND X42 0.05
 UP BND X43 0.05
 UP BND X44 0.05
 UP BND X45 0.05
 UP BND X46 0.05
 UP BND X47 0.05
 UP BND X48 0.05
 UP BND X49 0.05
 UP BND X50 0.05
 UP BND X51 0.05
 UP BND X52 0.05
 UP BND X53 0.05
 UP BND X54 0.05
 UP BND X55 0.05
 UP BND X56 0.05
 UP BND X57 0.05
 UP BND X58 0.05
 UP BND X59 0.05
 UP BND X60 0.05
 UP BND X61 0.05
 UP BND X62 0.05
 UP BND X63 0.05
 UP BND X64 0.05
 UP BND X65 0.05
 UP BND X66 0.05
 UP BND X67 0.05
 UP BND X68 0.05
 UP BND X69 0.05
 UP BND X70 0.05
 UP BND X71 0.05
 UP BND X72 0.05
 UP BND X73 0.05
 UP BND X74 0.05
 UP BND X75 0.05
 UP BND X76 0.05
 UP BND X77 0.05
 UP BND X78 0.05
 UP BND X79 0.05
 UP BND X80 0.05
 UP BND X81 0.05
 UP BND X82 0.05
 UP BND X83 0.05
 UP BND X84 0.05
 UP BND X85 0.05
 UP BND X86 0.05
 UP BND X87 0.05
 UP BND X88 0.05
 UP BND X89 0.05
 UP BND X90 0.05
 UP BND X91 0.05
 UP BND X92 0.05
 UP BND X93 0.05
 UP BND X94 0.05
 UP BND X95 0.05
 UP BND X96 0.05
 UP BND X97 0.05
 UP BND X98 0.05
 UP BND X99 0.05
 UP BND X100 0.05
 UP BND X101 0.05
 UP BND X102 0.05
 UP BND X103 0.05
 UP BND X104 0.05
 UP BND X105 0.05
 UP BND X106 0.05
 UP BND X107 0.05
 UP BND X108 0.05
 UP BND X109 0.05
 UP BND X110 0.05
 UP BND X111 0.05
 UP BND X112 0.05
 UP BND X113 0.05
 UP BND X114 0.05
 UP BND X115 0.05
 UP BND X116 0.05
 UP BND X117 0.05
 UP BND X118 0.05
 UP BND X119 0.05
 UP BND X120 0.05
 UP BND X121 0.05
 UP BND X122 0.05
 UP BND X123 0.05
 UP BND X124 0.05
 UP BND X125 0.05
 UP BND X126 0.05
 UP BND X127 0.05
 UP BND X128 0.05
 UP BND X129 0.05
 UP BND X130 0.05
 UP BND X131 0.05
 UP BND X132 0.05
 UP BND X133 0.05
 UP BND X134 0.05
 UP BND X135 0.05
 UP BND X136 0.05
 UP BND X137 0.05
 UP BND X138 0.05
 UP BND X139 0.05
 UP BND X140 0.05
 UP BND X141 0.05
 UP BND X142 0.05
 UP BND X143 0.05
 UP BND X144 0.05
 UP BND X145 0.05
 UP BND X146 0.05
 UP BND X147 0.05
 UP BND X148 0.05
 UP BND X149 0.05
 UP BND X150 0.05
 UP BND X151 0.05
 UP BND X152 0.05
 UP BND X153 0.05
 UP BND X154 0.05
 UP BND X155 0.05
 UP BND X156 0.05
 UP BND X157 0.05
 UP BND X158 0.05
 UP BND X159 0.05
 UP BND X160 0.05
 UP BND X161 0.05
 UP BND X162 0.05
 UP BND X163 0.05
 UP BND X164 0.05
 UP BND X165 0.05
 UP BND X166 0.05
 UP BND X167 0.05
 UP BND X168 0.05
 UP BND X169 0.05
 UP BND X170 0.05
 UP BND X171 0.05
 UP BND X172 0.05
 UP BND X173 0.05
 UP BND X174 0.05
 UP BND X175 0.05
 UP BND X176 0.05
 UP BND X177 0.05
 UP BND X178 0.05
 UP BND X179 0.05
 UP BND X180 0.05
 UP BND X181 0.05
 UP BND X182 0.05
 UP BND X183 0.05
 UP BND X184 0.05
 UP BND X185 0.05
 UP BND X186 0.05
 UP BND X187 0.05
 UP BND X188 0.05
 UP BND X189 0.05
 UP BND X190 0.05
 UP BND X191 0.05
 UP BND X192 0.05
 UP BND X193 0.05
 UP BND X194 0.05
 UP BND X195 0.05
 UP BND X196 0.05
 UP BND X197 0.05
 UP BND X198 0.05
 UP BND X199 0.05
 UP BND X200 0.05
 UP BND X201 0.05
 UP BND X202 0.05
 UP BND X203 0.05
 UP BND X204 0.05
 UP BND X205 0.05
 UP BND X206 0.05
 UP BND X207 0.05
 UP BND X208 0.05
 UP BND X209 0.05
 UP BND X210 0.05
 UP BND X211 0.05
 UP BND X212 0.05
 UP BND X213 0.05
 UP BND X214 0.05
 UP BND X215 0.05
 UP BND X216 0.05
 UP BND X217 0.05
 UP BND X218 0.05
 UP BND X219 0.05
 UP BND X220 0.05
 UP BND X221 0.05
 UP BND X222 0.05
 UP BND X223 0.05
 UP BND X224 0.05
 UP BND X225 0.05
 UP BND X226 0.05
 UP BND X227 0.05
 UP BND X228 0.05
 UP BND X229 0.05
 UP BND X230 0.05
 UP BND X231 0.05
 UP BND X232 0.05
 UP BND X233 0.05
 UP BND X234 0.05
 UP BND X235 0.05
 UP BND X236 0.05
 UP BND X237 0.05
 UP BND X238 0.05
 UP BND X239 0.05
 UP BND X240 0.05
 UP BND X241 0.05
 UP BND X242 0.05
 UP BND X243 0.05
 UP BND X244 0.05
 UP BND X245 0.05
 UP BND X246 0.05
 UP BND X247 0.05
 UP BND X248 0.05
 UP BND X249 0.05
 UP BND X250 0.05
 UP BND X251 0.05
 UP BND X252 0.05
 UP BND X253 0.05
 UP BND X254 0.05
 UP BND X255 0.05
 UP BND X256 0.05
 UP BND X257 0.05
 UP BND X258 0.05
 UP BND X259 0.05
 UP BND X260 0.05
 UP BND X261 0.05
 UP BND X262 0.05
 UP BND X263 0.05
 UP BND X264 0.05
 UP BND X265 0.05
 UP BND X266 0.05
 UP BND X267 0.05
 UP BND X268 0.05
 UP BND X269 0.05
 UP BND X270 0.05
 UP BND X271 0.05
 UP BND X272 0.05
 UP BND X273 0.05
 UP BND X274 0.05
 UP BND X275 0.05
 UP BND X276 0.05
 UP BND X277 0.05
 UP BND X278 0.05
 UP BND X279 0.05
 UP BND X280 0.05
 UP BND X281 0.05
 UP BND X282 0.05
 UP BND X283 0.05
 UP BND X284 0.05
 UP BND X285 0.05
 UP BND X286 0.05
 UP BND X287 0.05
 UP BND X288 0.05
 UP BND X289 0.05
 UP BND X290 0.05
 UP BND X291 0.05
 UP BND X292 0.05
 UP BND X293 0.05
 UP BND X294 0.05
 UP BND X295 0.05
 UP BND X296 0.05
 UP BND X297 0.05
 UP BND X298 0.05
 UP BND X299 0.05
 UP BND X300 0.05
 UP BND X301 0.05
 UP BND X302 0.05
 UP BND X303 0.05
 UP BND X304 0.05
 UP BND X305 0.05
 UP BND X306 0.05
 UP BND X307 0.05
 UP BND X308 0.05
 UP BND X309 0.05
 UP BND X310 0.05
 UP BND X311 0.05
 UP BND X312 0.05
 UP BND X313 0.05
 UP BND X314 0.05
 UP BND X315 0.05
 UP BND X316 0.05
 UP BND X317 0.05
 UP BND X318 0.05
 UP BND X319 0.05
 UP BND X320 0.05
 UP BND X321 0.05
 UP BND X322 0.05
 UP BND X323 0.05
 UP BND X324 0.05
 UP BND X325 0.05
 UP BND X326 0.05
 UP BND X327 0.05
 UP BND X328 0.05
 UP BND X329 0.05
 UP BND X330 0.05
 UP BND X331 0.05
 UP BND X332 0.05
 UP BND X333 0.05
 UP BND X334 0.05
 UP BND X335 0.05
 UP BND X336 0.05
 UP BND X337 0.05
 UP BND X338 0.05
 UP BND X339 0.05
 UP BND X340 0.05
 UP BND X341 0.05
 UP BND X342 0.05
 UP BND X343 0.05
 UP BND X344 0.05
 UP BND X345 0.05
 UP BND X346 0.05
 UP BND X347 0.05
 UP BND X348 0.05
 UP BND X349 0.05
 UP BND X350 0.05
 UP BND X351 0.05
 UP BND X352 0.05
 UP BND X353 0.05
 UP BND X354 0.05
 UP BND X355 0.05
 UP BND X356 0.05
 UP BND X357 0.05
 UP BND X358 0.05
 UP BND X359 0.05
 UP BND X360 0.05
 UP BND X361 0.05
 UP BND X362 0.05
 UP BND X363 0.05
 UP BND X364 0.05
 UP BND X365 0.05
 UP BND X366 0.05
 UP BND X367 0.05
 UP BND X368 0.05
 UP BND X369 0.05
 UP BND X370 0.05
 UP BND X371 0.05
 UP BND X372 0.05
 UP BND X373 0.05
 UP BND X374 0.05
 UP BND X375 0.05
 UP BND X376 0.05
 UP BND X377 0.05
 UP BND X378 0.05
 UP BND X379 0.05
 UP BND X380 0.05
 UP BND X381 0.05
 UP BND X382 0.05
 UP BND X383 0.05
 UP BND X384 0.05
 UP BND X385 0.05
 UP BND X386 0.05
 UP BND X387 0.05
 UP BND X388 0.05
 UP BND X389 0.05
 UP BND X390 0.05
 UP BND X391 0.05
 UP BND X392 0.05
 UP BND X393 0.05
 UP BND X394 0.05
 UP BND X395 0.05
 UP BND X396 0.05
 UP BND X397 0.05
 UP BND X398 0.05
 UP BND X399 0.05
 UP BND X400 0.05
 UP BND X401 0.05
 UP BND X402 0.05
 UP BND X403 0.05
 UP BND X404 0.05
 UP BND X405 0.05
 UP BND X406 0.05
 UP BND X407 0.05
 UP BND X408 0.05
 UP BND X409 0.05
 UP BND X410 0.05
 UP BND X411 0.05
 UP BND X412 0.05
 UP BND X413 0.05
 UP BND X414 0.05
 UP BND X415 0.05
 UP BND X416 0.05
 UP BND X417 0.05
 UP BND X418 0.05
 UP BND X419 0.05
 UP BND X420 0.05
 UP BND X421 0.05
 UP BND X422 0.05
 UP BND X423 0.05
 UP BND X424 0.05
 UP BND X425 0.05
 UP BND X426 0.05
 UP BND X427 0.05
 UP BND X428 0.05
 UP BND X429 0.05
 UP BND X430 0.05
 UP BND X431 0.05
 UP BND X432 0.05
 UP BND X433 0.05
 UP BND X434 0.05
 UP BND X435 0.05
 UP BND X436 0.05
 UP BND X437 0.05
 UP BND X438 0.05
 UP BND X439 0.05
 UP BND X440 0.05
 UP BND X441 0.05
 UP BND X442 0.05
 UP BND X443 0.05
 UP BND X444 0.05
 UP BND X445 0.05
 UP BND X446 0.05
 UP BND X447 0.05
 UP BND X448 0.05
 UP BND X449 0.05
 UP BND X450 0.05
 UP BND X451 0.05
 UP BND X452 0.05
 UP BND X453 0.05
 UP BND X454 0.05
 UP BND X455 0.05
 UP BND X456 0.05
 UP BND X457 0.05
 UP BND X458 0.05
 UP BND X459 0.05
 UP BND X460 0.05
 UP BND X461 0.05
 UP BND X462 0.05
 UP BND X463 0.05
 UP BND X464 0.05
 UP BND X465 0.05
 UP BND X466 0.05
 UP BND X467 0.05
 UP BND X468 0.05
 UP BND X469 0.05
 UP BND X470 0.05
 UP BND X471 0.05
 UP BND X472 0.05
 UP BND X473 0.05
 UP BND X474 0.05
 UP BND X475 0.05
 UP BND X476 0.05
 UP BND X477 0.05
 UP BND X478 0.05
 UP BND X479 0.05
 UP BND X480 0.05
 UP BND X481 0.05
 UP BND X482 0.05
 UP BND X483 0.05
 UP BND X484 0.05
 UP BND X485 0.05
 UP BND X486 0.05
 UP BND X487 0.05
 UP BND X488 0.05
 UP BND X489 0.05
 UP BND X490 0.05
 UP BND X491 0.05
 UP BND X492 0.05
 UP BND X493 0.05
 UP BND X494 0.05
 UP BND X495 0.05
 UP BND X496 0.05
 UP BND X497 0.05
 UP BND X498 0.05
 UP BND X499 0.05
 UP BND X500 0.05
 UP BND X501 0.05
 UP BND X502 0.05
 UP BND X503 0.05
 UP BND X504 0.05
 UP BND X505 0.05
 UP BND X506 0.05
 UP BND X507 0.05
 UP BND X508 0.05
 UP BND X509 0.05
 UP BND X510 0.05
 UP BND X511 0.05
 UP BND X512 0.05
 UP BND X513 0.05
 UP BND X514 0.05
 UP BND X515 0.05
 UP BND X516 0.05
 UP BND X517 0.05
 UP BND X518 0.05
 UP BND X519 0.05
 UP BND X520 0.05
 UP BND X521 0.05
 UP BND X522 0.05
 UP BND X523 0.05
 UP BND X524 0.05
 UP BND X525 0.05
 UP BND X526 0.05
 UP BND X527 0.05
 UP BND X528 0.05
 UP BND X529 0.05
 UP BND X530 0.05
 UP BND X531 0.05
 UP BND X532 0.05
 UP BND X533 0.05
 UP BND X534 0.05
 UP BND X535 0.05
 UP BND X536 0.05
 UP BND X537 0.05
 UP BND X538 0.05
 UP BND X539 0.05
 UP BND X540 0.05
 UP BND X541 0.05
 UP BND X542 0.05
 UP BND X543 0.05
 UP BND X544 0.05
 UP BND X545 0.05
 UP BND X546 0.05
 UP BND X547 0.05
 UP BND X548 0.05
 UP BND X549 0.05
 UP BND X550 0.05
 UP BND X551 0.05
 UP BND X552 0.05
 UP BND X553 0.05
 UP BND X554 0.05
 UP BND X555 0.05
 UP BND X556 0.05
 UP BND X557 0.05
 UP BND X558 0.05
 UP BND X559 0.05
 UP BND X560 0.05
 UP BND X561 0.05
 UP BND X562 0.05
 UP BND X563 0.05
 UP BND X564 0.05
 UP BND X565 0.05
 UP BND X566 0.05
 UP BND X567 0.05
 UP BND X568 0.05
 UP BND X569 0.05
 UP BND X570 0.05
 UP BND X571 0.05
 UP BND X572 0.05
 UP BND X573 0.05
 UP BND X574 0.05
 UP BND X575 0.05
 UP BND X576 0.05
 UP BND X577 0.05
 UP BND X578 0.05
 UP BND X579 0.05
 UP BND X580 0.05
 UP BND X581 0.05
 UP BND X582 0.05
 UP BND X583 0.05
 UP BND X584 0.05
 UP BND X585 0.05
 UP BND X586 0.05
 UP BND X587 0.05
 UP BND X588 0.05
 UP BND X589 0.05
 UP BND X590 0.05
 UP BND X591 0.05
 UP BND X592 0.05
 UP BND X593 0.05
 UP BND X594 0.05
 UP BND X595 0.05
 UP BND X596 0.05
 UP BND X597 0.05
 UP BND X598 0.05
 UP BND X599 0.05
 UP BND X600 0.05
 UP BND X601 0.05
 UP BND X602 0.05
 UP BND X603 0.05
 UP BND X604 0.05
 UP BND X605 0.05
 UP BND X606 0.05
 UP BND X607 0.05
 UP BND X608 0.05
 UP BND X609 0.05
 UP BND X610 0.05
 UP BND X611 0.05
 UP BND X612 0.05
 UP BND X613 0.05
 UP BND X614 0.05
 UP BND X615 0.05
 UP BND X616 0.05
 UP BND X617 0.05
 UP BND X618 0.05
 UP BND X619 0.05
 UP BND X620 0.05
 UP BND X621 0.05
 UP BND X622 0.05
 UP BND X623 0.05
 UP BND X624 0.05
 UP BND X625 0.05
 UP BND X626 0.05
 UP BND X627 0.05
 UP BND X628 0.05
 UP BND X629 0.05
 UP BND X630 0.05
 UP BND X631 0.05
 UP BND X632 0.05
 UP BND X633 0.05
 UP BND X634 0.05
 UP BND X635 0.05
 UP BND X636 0.05
 UP BND X637 0.05
 UP BND X638 0.05
 UP BND X639 0.05
 UP BND X640 0.05
 UP BND X641 0.05
 UP BND X642 0.05
 UP BND X643 0.05
 UP BND X644 0.05
 UP BND X645 0.05
 UP BND X646 0.05
 UP BND X647 0.05
 UP BND X648 0.05
 UP BND X649 0.05
 UP BND X650 0.05
 UP BND X651 0.05
 UP BND X652 0.05
 UP BND X653 0.05
 UP BND X654 0.05
 UP BND X655 0.05
 UP BND X656 0.05
 UP BND X657 0.05
 UP BND X658 0.05
 UP BND X659 0.05
 UP BND X660 0.05
 UP BND X661 0.05
 UP BND X662 0.05
 UP BND X663 0.05
 UP BND X664 0.05
 UP BND X665 0.05
 UP BND X666 0.05
 UP BND X667 0.05
 UP BND X668 0.05
 UP BND X669 0.05
 UP BND X670 0.05
 UP BND X671 0.05
 UP BND X672 0.05
 UP BND X673 0.05
 UP BND X674 0.05
 UP BND X675 0.05
 UP BND X676 0.05
 UP BND X677 0.05
 UP BND X678 0.05
 UP BND X679 0.05
 UP BND X680 0.05
 UP BND X681 0.05
 UP BND X682 0.05
 UP BND X683 0.05
 UP BND X684 0.05
 UP BND X685 0.05
 UP BND X686 0.05
 UP BND X687 0.05
 UP BND X688 0.05
 UP BND X689 0.05
 UP BND X690 0.05
 UP BND X691 0.05
 UP BND X692 0.05
 UP BND X693 0.05
 UP BND X694 0.05
 UP BND X695 0.05
 UP BND X696 0.05
 UP BND X697 0.05
 UP BND X698 0.05
 UP BND X699 0.05
 UP BND X700 0.05
 UP BND X701 0.05
 UP BND X702 0.05
 UP BND X703 0.05
 UP BND X704 0.05
 UP BND X705 0.05
 UP BND X706 0.05
 UP BND X707 0.05
 UP BND X708 0.05
 UP BND X709 0.05
 UP BND X710 0.05
 UP BND X711 0.05
 UP BND X712 0.05
 UP BND X713 0.05
 UP BND X714 0.05
 UP BND X715 0.05
 UP BND X716 0.05
 UP BND X717 0.05
 UP BND X718 0.05
 UP BND X719 0.05
 UP BND X720 0.05
 UP BND X721 0.05
 UP BND X722 0.05
 UP BND X723 0.05
 UP BND X724 0.05
 UP BND X725 0.05
 UP BND X726 0.05
 UP BND X727 0.05
 UP BND X728 0.05
 UP BND X729 0.05
 UP BND X730 0.05
 UP BND X731 0.05
 UP BND X732 0.05
 UP BND X733 0.05
 UP BND X734 0.05
 UP BND X735 0.05
 UP BND X736 0.05
 UP BND X737 0.05
 UP BND X738 0.05
 UP BND X739 0.05
 UP BND X740 0.05
 UP BND X741 0.05
 UP BND X742 0.05
 UP BND X743 0.05
 UP BND X744 0.05
 UP BND X745 0.05
 UP BND X746 0.05
 UP BND X747 0.05
 UP BND X748 0.05
 UP BND X749 0.05
 UP BND X750 0.05
 UP BND X751 0.05
 UP BND X752 0.05
 UP BND X753 0.05
 UP BND X754 0.05
 UP BND X755 0.05
 UP BND X756 0.05
 UP BND X757 0.05
 UP BND X758 0.05
 UP BND X759 0.05
 UP BND X760 0.05
 UP BND X761 0.05
 UP BND X762 0.05
 UP BND X763 0.05
 UP BND X764 0.05
 UP BND X765 0.05
 UP BND X766 0.05
 UP BND X767 0.05
 UP BND X768 0.05
 UP BND X769 0.05
 UP BND X770 0.05
 UP BND X771 0.05
 UP BND X772 0.05
 UP BND X773 0.05
 UP BND X774 0.05
 UP BND X775 0.05
 UP BND X776 0.05
 UP BND X777 0.05
 UP BND X778 0.05
 UP BND X779 0.05
 UP BND X780 0.05
 UP BND X781 0.05
 UP BND X782 0.05
 UP BND X783 0.05
 UP BND X784 0.05
 UP BND X785 0.05
 UP BND X786 0.05
 UP BND X787 0.05
 UP BND X788 0.05
 UP BND X789 0.05
 UP BND X790 0.05
 UP BND X791 0.05
 UP BND X792 0.05
 UP BND X793 0.05
 UP BND X794 0.05
 UP BND X795 0.05
 UP BND X796 0.05
 UP BND X797 0.05
 UP BND X798 0.05
 UP BND X799 0.05
 UP BND X800 0.05
 UP BND X801 0.05
 UP BND X802 0.05
 UP BND X803 0.05
 UP BND X804 0.05
 UP BND X805 0.05
 UP BND X806 0.05
 UP BND X807 0.05
 UP BND X808 0.05
 UP BND X809 0.05
 UP BND X810 0.05
 UP BND X811 0.05
 UP BND X812 0.05
 UP BND X813 0.05
 UP BND X814 0.05
 UP BND X815 0.05
 UP BND X816 0.05
 UP BND X817 0.05
 UP BND X818 0.05
 UP BND X819 0.05
 UP BND X820 0.05
 UP BND X821 0.05
 UP BND X822 0.05
 UP BND X823 0.05
 UP BND X824 0.05
 UP BND X825 0.05
 UP BND X826 0.05
 UP BND X827 0.05
 UP BND X828 0.05
 UP BND X829 0.05
 UP BND X830 0.05
 UP BND X831 0.05
 UP BND X832 0.05
 UP BND X833 0.05
 UP BND X834 0.05
 UP BND X835 0.05
 UP BND X836 0.05
 UP BND X837 0.05
 UP BND X838 0.05
 UP BND X839 0.05
 UP BND X840 0.05
 UP BND X841 0.05
 UP BND X842 0.05
 UP BND X843 0.05
 UP BND X844 0.05
 UP BND X845 0.05
 UP BND X846 0.05
 UP BND X847 0.05
 UP BND X848 0.05
 UP BND X849 0.05
 UP BND X850 0.05
 UP BND X851 0.05
 UP BND X852 0.05
 UP BND X853 0.05
 UP BND X854 0.05
 UP BND X855 0.05
 UP BND X856 0.05
 UP BND X857 0.05
 UP BND X858 0.05
 UP BND X859 0.05
 UP BND X860 0.05
 UP BND X861 0.05
 UP BND X862 0.05
 UP BND X863 0.05
 UP BND X864 0.05
 UP BND X865 0.05
 UP BND X866 0.05
 UP BND X867 0.05
 UP BND X868 0.05
 UP BND X869 0.05
 UP BND X870 0.05
 UP BND X871 0.05
 UP BND X872 0.05
 UP BND X873 0.05
 UP BND X874 0.05
 UP BND X875 0.05
 UP BND X876 0.05
 UP BND X877 0.05
 UP BND X878 0.05
 UP BND X879 0.05
 UP BND X880 0.05
 UP BND X881 0.05
 UP BND X882 0.05
 UP BND X883 0.05
 UP BND X884 0.05
 UP BND X885 0.05
 UP BND X886 0.05
 UP BND X887 0.05
 UP BND X888 0.05
 UP BND X889 0.05
 UP BND X890 0.05
 UP BND X891 0.05
 UP BND X892 0.05
 UP BND X893 0.05
 UP BND X894 0.05
 UP BND X895 0.05
 UP BND X896 0.05
 UP BND X897 0.05
 UP BND X898 0.05
 UP BND X899 0.05
 UP BND X900 0.05
 UP BND X901 0.05
 UP BND X902 0.05
 UP BND X903 0.05
 UP BND X904 0.05
 UP BND X905 0.05
 UP BND X906 0.05
 UP BND X907 0.05
 UP BND X908 0.05
 UP BND X909 0.05
 UP BND X910 0.05
 UP BND X911 0.05
 UP BND X912 0.05
 UP BND X913 0.05
 UP BND X914 0.05
 UP BND X915 0.05
 UP BND X916 0.05
 UP BND X917 0.05
 UP BND X918 0.05
 UP BND X919 0.05
 UP BND X920 0.05
 UP BND X921 0.05
 UP BND X922 0.05
 UP BND X923 0.05
 UP BND X924 0.05
 UP BND X925 0.05
 UP BND X926 0.05
 UP BND X927 0.05
 UP BND X928 0.05
 UP BND X929 0.05
 UP BND X930 0.05
 UP BND X931 0.05
 UP BND X932 0.05
 UP BND X933 0.05
 UP BND X934 0.05
 UP BND X935 0.05
 UP BND X936 0.05
 UP BND X937 0.05
 UP BND X938 0.05
 UP BND X939 0.05
 UP BND X940 0.05
 UP BND X941 0.05
 UP BND X942 0.05
 UP BND X943 0.05
 UP BND X944 0.05
 UP BND X945 0.05
 UP BND X946 0.05
 UP BND X947 0.05
 UP BND X948 0.05
 UP BND X949 0.05
 UP BND X950 0.05
 UP BND X951 0.05
 UP BND X952 0.05
 UP BND X953 0.05
 UP BND X954 0.05
 UP BND X955 0.05
 UP BND X956 0.05
 UP BND X957 0.05
 UP BND X958 0.05
 UP BND X959 0.05
 UP BND X960 0.05
 UP BND X961 0.05
 UP BND X962 0.05
 UP BND X963 0.05
 UP BND X964 0.05
 UP BND X965 0.05
 UP BND X966 0.05
 UP BND X967 0.05
 UP BND X968 0.05
 UP BND X969 0.05
 UP BND X970 0.05
 UP BND X971 0.05
 UP BND X972 0.05
 UP BND X973 0.05
 UP BND X974 0.05
 UP BND X975 0.05
 UP BND X976 0.05
 UP BND X977 0.05
 UP BND X978 0.05
 UP BND X979 0.05
 UP BND X980 0.05
 UP BND X981 0.05
 UP BND X982 0.05
 UP BND X983 0.05
 UP BND X984 0.05
 UP BND X985 0.05
 UP BND X986 0.05
 UP BND X987 0.05
 UP BND X988 0.05
 UP BND X989 0.05
 UP BND X990 0.05
 UP BND X991 0.05
 UP BND X992 0.05
 UP BND X993 0.05
 UP BND X994 0.05
 UP BND X995 0.05
 UP BND X996 0.05
 UP BND X997 0.05
 UP BND X998 0.05
 UP BND X999 0.05
 UP BND X1000 0.05
 UP BND X1001 0.05
 UP BND X1002 0.05
 UP BND X1003 0.05
 UP BND X1004 0.05
 UP BND X1005 0.05
 UP BND X1006 0.05
 UP BND X1007 0.05
 UP BND X1008 0.05
 UP BND X1009 0.05
 UP BND X1010 0.05
 UP BND X1011 0.05
 UP BND X1012 0.05
 UP BND X1013 0.05
 UP BND X1014 0.05
 UP BND X1015 0.05
 UP BND X1016 0.05
 UP BND X1017 0.05
 UP BND X1018 0.05
 UP BND X1019 0.05
 UP BND X1020 0.05
 UP BND X1021 0.05
 UP BND X1022 0.05
 UP BND X1023 0.05
 UP BND X1024 0.05
 UP BND X1025 0.05
 UP BND X1026 0.05
 UP BND X1027 0.05
 UP BND X1028 0.05
 UP BND X1029 0.05
 UP BND X1030 0.05
 UP BND X1031 0.05
 UP BND X1032 0.05
 UP BND X1033 0.05
 UP BND X1034 0.05
 UP BND X1035 0.05
 UP BND X1036 0.05
 UP BND X1037 0.05
 UP BND X1038 0.05
 UP BND X1039 0.05
 UP BND X1040 0.05
 UP BND X1041 0.05
 UP BND X1042 0.05
 UP BND X1043 0.05
 UP BND X1044 0.05
 UP BND X1045 0.05
 UP BND X1046 0.05
 UP BND X1047 0.05
 UP BND X1048 0.05
 UP BND X1049 0.05
 UP BND X1050 0.05
 UP BND X1051 0.05
 UP BND X1052 0.05
 UP BND X1053 0.05
 UP BND X1054 0.05
 UP BND X1055 0.05
 UP BND X1056 0.05
 UP BND X1057 0.05
 UP BND X1058 0.05
 UP BND X1059 0.05
 UP BND X1060 0.05
 UP BND X1061 0.05
 UP BND X1062 0.05
 UP BND X1063 0.05
 UP BND X1064 0.05
 UP BND X1065 0.05
 UP BND X1066 0.05
 UP BND X1067 0.05
 UP BND X1068 0.05
 UP BND X1069 0.05
 UP BND X1070 0.05
 UP BND X1071 0.05
 UP BND X1072 0.05
 UP BND X1073 0.05
 UP BND X1074 0.05
 UP BND X1075 0.05
 UP BND X1076 0.05
 UP BND X1077 0.05
 UP BND X1078 0.05
 UP BND X1079 0.05
 UP BND X1080 0.05
 UP BND X1081 0.05
 UP BND X1082 0.05
 UP BND X1083 0.05
 UP BND X1084 0.05
 UP BND X1085 0.05
 UP BND X1086 0.05
 UP BND X1087 0.05
 UP BND X1088 0.05
 UP BND X1089 0.05
 UP BND X1090 0.05
 UP BND X1091 0.05
 UP BND X1092 0.05
 UP BND X1093 0.05
 UP BND X1094 0.05
 UP BND X1095 0.05
 UP BND X1096 0.05
 UP BND X1097 0.05
 UP BND X1098 0.05
 UP BND X1099 0.05
 UP BND X1100 0.05
 UP BND X1101 0.05
 UP BND X1102 0.05
 UP BND X1103 0.05
 UP BND X1104 0.05
 UP BND X1105 0.05
 UP BND X1106 0.05
 UP BND X1107 0.05
 UP BND X1108 0.05
 UP BND X1109 0.05
 UP BND X1110 0.05
 UP BND X1111 0.05
 UP BND X1112 0.05
 UP BND X1113 0.05
 UP BND X1114 0.05
 UP BND X1115 0.05
 UP BND X1116 0.05
 UP BND X1117 0.05
 UP BND X1118 0.05
 UP BND X1119 0.05
 UP BND X1120 0.05
 UP BND X1121 0.05
 UP BND X1122 0.05
 UP BND X1123 0.05
 UP BND X1124 0.05
 UP BND X1125 0.05
 UP BND X1126 0.05
 UP BND X1127 0.05
 UP BND X1128 0.05
 UP BND X1129 0.05
 UP BND X1130 0.05
 UP BND X1131 0.05
 UP BND X1132 0.05
 UP BND X1133 0.05
 UP BND X1134 0.05
 UP BND X1135 0.05
 UP BND X1136 0.05
 UP BND X1137 0.05
 UP BND X1138 0.05
 UP BND X1139 0.05
 UP BND X1140 0.05
 UP BND X1141 0.05
 UP BND X1142 0.05
 UP BND X1143 0.05
 UP BND X1144 0.05
 UP BND X1145 0.05
 UP BND X1146 0.05
 UP BND X1147 0.05
 UP BND X1148 0.05
 UP BND X1149 0.05
 UP BND X1150 0.05
 UP BND X1151 0.05
 UP BND X1152 0.05
 UP BND X1153 0.05
 UP BND X1154 0.05
 UP BND X1155 0.05
 UP BND X1156 0.05
 UP BND X1157 0.05
 UP BND X1158 0.05
 UP BND X1159 0.05
 UP BND X1160 0.05
 UP BND X1161 0.05
 UP BND X1162 0.05
 UP BND X1163 0.05
 UP BND X1164 0.05
 UP BND X1165 0.05
 UP BND X1166 0.05
 UP BND X1167 0.05
 UP BND X1168 0.05
 UP BND X1169 0.05
 UP BND X1170 0.05
 UP BND X1171 0.05
 UP BND X1172 0.05
 UP BND X1173 0.05
 UP BND X1174 0.05
 UP BND X1175 0.05
 UP BND X1176 0.05
 UP BND X1177 0.05
 UP BND X1178 0.05
 UP BND X1179 0.05
 UP BND X1180 0.05
 UP BND X1181 0.05
 UP BND X1182 0.05
 UP BND X1183 0.05
 UP BND X1184 0.05
 UP BND X1185 0.05
 UP BND X1186 0.05
 UP BND X1187 0.05
 UP BND X1188 0.05
 UP BND X1189 0.05
 UP BND X1190 0.05
 UP BND X1191 0.05
 UP BND X1192 0.05
 UP BND X1193 0.05
 UP BND X1194 0.05
 UP BND X1195 0.05
 UP BND X1196 0.05
 UP BND X1197 0.05
 UP BND X1198 0.05
 UP BND X1199 0.05
 UP BND X1200 0.05
 UP BND X1201 0.05
 UP BND X1202 0.05
 UP BND X1203 0.05
 UP BND X1204 0.05
 UP BND X1205 0.05
 UP BND X1206 0.05
 UP BND X1207 0.05
 UP BND X1208 0.05
 UP BND X1209 0.05
 UP BND X1210 0.05
 UP BND X1211 0.05
 UP BND X1212 0.05
 UP BND X1213 0.05
 UP BND X1214 0.05
 UP BND X1215 0.05
 UP BND X1216 0.05
 UP BND X1217 0.05
 UP BND X1218 0.05
 UP BND X1219 0.05
 UP BND X1220 0.05
 UP BND X1221 0.05
 UP BND X1222 0.05
 UP BND X1223 0.05
 UP BND X1224 0.05
 UP BND X1225 0.05
 UP BND X1226 0.05
 UP BND X1227 0.05
 UP BND X1228 0.05
 UP BND X1229 0.05
 UP BND X1230 0.05
 UP BND X1231 0.05
 UP BND X1232 0.05
 UP BND X1233 0.05
 UP BND X1234 0.05
 UP BND X1235 0.05
 UP BND X1236 0.05
 UP BND X1237 0.05
 UP BND X1238 0.05
 UP BND X1239 0.05
 UP BND X1240 0.05
 UP BND X1241 0.05
 UP BND X1242 0.05
 UP BND X1243 0.05
 UP BND X1244 0.05
 UP BND X1245 0.05
 UP BND X1246 0.05
 UP BND X1247 0.05
 UP BND X1248 0.05
 UP BND X1249 0.05
 UP BND X1250 0.05
 UP BND X1251 0.05
 UP BND X1252 0.05
 UP BND X1253 0.05
 UP BND X1254 0.05
 UP BND X1255 0.05
 UP BND X1256 0.05
 UP BND X1257 0.05
 UP BND X1258 0.05
 UP BND X1259 0.05
 UP BND X1260 0.05
 UP BND X1261 0.05
 UP BND X1262 0.05
 UP BND X1263 0.05
 UP BND X1264 0.05
 UP BND X1265 0.05
 UP BND X1266 0.05
 UP BND X1267 0.05
 UP BND X1268 0.05
 UP BND X1269 0.05
 UP BND X1270 0.05
 UP BND X1271 0.05
 UP BND X1272 0.05
 UP BND X1273 0.05
 UP BND X1274 0.05
 UP BND X1275 0.05
 UP BND X1276 0.05
 UP BND X1277 0.05
 UP BND X1278 0.05
 UP BND X1279 0.05
 UP BND X1280 0.05
 UP BND X1281 0.05
 UP BND X1282 0.05
 UP BND X1283 0.05
 UP BND X1284 0.05
 UP BND X1285 0.05
 UP BND X1286 0.05
 UP BND X1287 0.05
 UP BND X1288 0.05
 UP BND X1289 0.05
 UP BND X1290 0.05
 UP BND X1291 0.05
 UP BND X1292 0.05
 UP BND X1293 0.05
 UP BND X1294 0.05
 UP BND X1295 0.05
 UP BND X1296 0.05
 UP BND X1297 0.05
 UP BND X1298 0.05
 UP BND X1299 0.05
 UP BND X1300 0.05
 UP BND X1301 0.05
 UP BND X1302 0.05
 UP BND X1303 0.05
 UP BND X1304 0.05
 UP BND X1305 0.05
 UP BND X1306 0.05
 UP BND X1307 0.05
 UP BND X1308 0.05
 UP BND X1309 0.05
 UP BND X1310 0.05
 UP BND X1311 0.05
 UP BND X1312 0.05
 UP BND X1313 0.05
 UP BND X1314 0.05
 UP BND X1315 0.05
 UP BND X1316 0.05
 UP BND X1317 0.05
 UP BND X1318 0.05
 UP BND X1319 0.05
 UP BND X1320 0.05
 UP BND X1321 0.05
 UP BND X1322 0.05
 UP BND X1323 0.05
 UP BND X1324 0.05
 UP BND X1325 0.05
 UP BND X1326 0.05
 UP BND X1327 0.05
 UP BND X1328 0.05
 UP BND X1329 0.05
 UP BND X1330 0.05
 UP BND X1331 0.05
 UP BND X1332 0.05
 UP BND X1333 0.05
 UP BND X1334 0.05
 UP BND X1335 0.05
 UP BND X1336 0.05
 UP BND X1337 0.05
 UP BND X1338 0.05
 UP BND X1339 0.05
 UP BND X1340 0.05
 UP BND X1341 0.05
 UP BND X1342 0.05
 UP BND X1343 0.05
 UP BND X1344 0.05
 UP BND X1345 0.05
 UP BND X1346 0.05
 UP BND X1347 0.05
 UP BND X1348 0.05
 UP BND X1349 0.05
 UP BND X1350 0.05
 UP BND X1351 0.05
 UP BND X1352 0.05
 UP BND X1353 0.05
 UP BND X1354 0.05
 UP BND X1355 0.05
 UP BND X1356 0.05
 UP BND X1357 0.05
 UP BND X1358 0.05
 UP BND X1359 0.05
 UP BND X1360 0.05
 UP BND X1361 0.05
 UP BND X1362 0.05
 UP BND X1363 0.05
 UP BND X1364 0.05
 UP BND X1365 0.05
 UP BND X1366 0.05
 UP BND X1367 0.05
 UP BND X1368 0.05
 UP BND X1369 0.05
 UP BND X1370 0.05
 UP BND X1371 0.05
 UP BND X1372 0.05
 UP BND X1373 0.05
 UP BND X1374 0.05
 UP BND X1375 0.05
 UP BND X1376 0.05
 UP BND X1377 0.05
 UP BND X1378 0.05
 UP BND X1379 0.05
 UP BND X1380 0.05
 UP BND X1381 0.05
 UP BND X1382 0.05
 UP BND X1383 0.05
 UP BND X1384 0.05
 UP BND X1385 0.05
 UP BND X1386 0.05
 UP BND X1387 0.05
 UP BND X1388 0.05
 UP BND X1389 0.05
 UP BND X1390 0.05
 UP BND X1391 0.05
 UP BND X1392 0.05
 UP BND X1393 0.05
 UP BND X1394 0.05
 UP BND X1395 0.05
 UP BND X1396 0.05
 UP BND X1397 0.05
 UP BND X1398 0.05
 UP BND X1399 0.05
 UP BND X1400 0.05
 UP BND X1401 0.05
 UP BND X1402 0.05
 UP BND X1403 0.05
 UP BND X1404 0.05
 UP BND X1405 0.05
 UP BND X1406 0.05
 UP BND X1407 0.05
 UP BND X1408 0.05
 UP BND X1409 0.05
 UP BND X1410 0.05
 UP BND X1411 0.05
 UP BND X1412 0.05
 UP BND X1413 0.05
 UP BND X1414 0.05
 UP BND X1415 0.05
 UP BND X1416 0.05
 UP BND X1417 0.05
 UP BND X1418 0.05
 UP BND X1419 0.05
 UP BND X1420 0.05
 UP BND X1421 0.05
 UP BND X1422 0.05
 UP BND X1423 0.05
 UP BND X1424 0.05
 UP BND X1425 0.05
 UP BND X1426 0.05
 UP BND X1427 0.05
 UP BND X1428 0.05
 UP BND X1429 0.05
 UP BND X1430 0.05
 UP BND X1431 0.05
 UP BND X1432 0.05
 UP BND X1433 0.05
 UP BND X1434 0.05
 UP BND X1435 0.05
 UP BND X1436 0.05
 UP BND X1437 0.05
 UP BND X1438 0.05
 UP BND X1439 0.05
 UP BND X1440 0.05
 UP BND X1441 0.05
 UP BND X1442 0.05
 UP BND X1443 0.05
 UP BND X1444 0.05
 UP BND X1445 0.05
 UP BND X1446 0.05
 UP BND X1447 0.05
 UP BND X1448 0.05
 UP BND X1449 0.05
 UP BND X1450 0.05
 UP BND X1451 0.05
 UP BND X1452 0.05
 UP BND X1453 0.05
 UP BND X1454 0.05
 UP BND X1455 0.05
 UP BND X1456 0.05
 UP BND X1457 0.05
 UP BND X1458 0.05
 UP BND X1459 0.05
 UP BND X1460 0.05
 UP BND X1461 0.05
 UP BND X1462 0.05
 UP BND X1463 0.05
 UP BND X1464 0.05
 UP BND X1465 0.05
 UP BND X1466 0.05
 UP BND X1467 0.05
 UP BND X1468 0.05
 UP BND X1469 0.05
 UP BND X1470 0.05
 UP BND X1471 0.05
 UP BND X1472 0.05
 UP BND X1473 0.05
 UP BND X1474 0.05
 UP BND X1475 0.05
 UP BND X1476 0.05
 UP BND X1477 0.05
 UP BND X1478 0.05
 UP BND X1479 0.05
 UP BND X1480 0.05
 UP BND X1481 0.05
 UP BND X1482 0.05
 UP BND X1483 0.05
 UP BND X1484 0.05
 UP BND X1485 0.05
 UP BND X1486 0.05
 UP BND X1487 0.05
 UP BND X1488 0.05
 UP BND X1489 0.05
 UP BND X1490 0.05
 UP BND X1491 0.05
 UP BND X1492 0.05
 UP BND X1493 0.05
 UP BND X1494 0.05
 UP BND X1495 0.05
 UP BND X1496 0.05
 UP BND X1497 0.05
 UP BND X1498 0.05
 UP BND X1499 0.05
 FR BND F0
 FR BND F1
 FR BND F2
 FR BND F3
 FR BND F4
 FR BND F5
 FR BND F6
 FR BND F7
 FR BND F8
 FR BND F9
 FR BND F10
 FR BND F11
 FR BND F12
 FR BND F13
 FR BND F14
QUADOBJ
    X0 X0 0.157355
    X1 X1 0.131839
    X2 X2 0.112783
    X3 X3 0.0596184
    X4 X4 0.0790806
    X5 X5 0.0284121
    X6 X6 0.104521
    X7 X7 0.148973
    X8 X8 0.15447
    X9 X9 0.0472006
    X10 X10 0.0602936
    X11 X11 0.147867
    X12 X12 0.118004
    X13 X13 0.163524
    X14 X14 0.108648
    X15 X15 0.0292042
    X16 X16 0.14152
    X17 X17 0.17719
    X18 X18 0.0621189
    X19 X19 0.125207
    X20 X20 0.148748
    X21 X21 0.105632
    X22 X22 0.138915
    X23 X23 0.174897
    X24 X24 0.0705725
    X25 X25 0.0503758
    X26 X26 0.0955495
    X27 X27 0.0345751
    X28 X28 0.0839611
    X29 X29 0.129132
    X30 X30 0.11617
    X31 X31 0.0254556
    X32 X32 0.0434213
    X33 X33 0.0730716
    X34 X34 0.142667
    X35 X35 0.172626
    X36 X36 0.0254182
    X37 X37 0.0393864
    X38 X38 0.154489
    X39 X39 0.115908
    X40 X40 0.0771491
    X41 X41 0.119551
    X42 X42 0.151929
    X43 X43 0.0689943
    X44 X44 0.101626
    X45 X45 0.0464178
    X46 X46 0.0384126
    X47 X47 0.048281
    X48 X48 0.037018
    X49 X49 0.137364
    X50 X50 0.0277585
    X51 X51 0.0897684
    X52 X52 0.126438
    X53 X53 0.121421
    X54 X54 0.121046
    X55 X55 0.143684
    X56 X56 0.0653968
    X57 X57 0.10019
    X58 X58 0.0401691
    X59 X59 0.0895877
    X60 X60 0.111836
    X61 X61 0.0600098
    X62 X62 0.106566
    X63 X63 0.13172
    X64 X64 0.150998
    X65 X65 0.0779891
    X66 X66 0.046866
    X67 X67 0.0431073
    X68 X68 0.0728729
    X69 X69 0.0668613
    X70 X70 0.0279519
    X71 X71 0.0362179
    X72 X72 0.149653
    X73 X73 0.0228443
    X74 X74 0.06977
    X75 X75 0.0667821
    X76 X76 0.149197
    X77 X77 0.147582
    X78 X78 0.0502642
    X79 X79 0.0978105
    X80 X80 0.115691
    X81 X81 0.0275268
    X82 X82 0.134756
    X83 X83 0.10854
    X84 X84 0.0782848
    X85 X85 0.143271
    X86 X86 0.0988827
    X87 X87 0.13379
    X88 X88 0.132423
    X89 X89 0.104098
    X90 X90 0.12123
    X91 X91 0.060093
    X92 X92 0.15436
    X93 X93 0.0581666
    X94 X94 0.118607
    X95 X95 0.0868656
    X96 X96 0.0494739
    X97 X97 0.102763
    X98 X98 0.0904261
    X99 X99 0.100782
    X100 X100 0.062563
    X101 X101 0.0626576
    X102 X102 0.116408
    X103 X103 0.0304715
    X104 X104 0.080303
    X105 X105 0.125203
    X106 X106 0.161241
    X107 X107 0.0263998
    X108 X108 0.0536223
    X109 X109 0.131721
    X110 X110 0.0580596
    X111 X111 0.152987
    X112 X112 0.0374084
    X113 X113 0.145539
    X114 X114 0.0451972
    X115 X115 0.0901909
    X116 X116 0.128231
    X117 X117 0.0834149
    X118 X118 0.141104
    X119 X119 0.119387
    X120 X120 0.0380751
    X121 X121 0.0222081
    X122 X122 0.0471564
    X123 X123 0.0254579
    X124 X124 0.121634
    X125 X125 0.0693594
    X126 X126 0.0463304
    X127 X127 0.0539562
    X128 X128 0.118235
    X129 X129 0.0694804
    X130 X130 0.10884
    X131 X131 0.137342
    X132 X132 0.159082
    X133 X133 0.0491676
    X134 X134 0.100765
    X135 X135 0.1748
    X136 X136 0.0838853
    X137 X137 0.0279216
    X138 X138 0.104201
    X139 X139 0.0581828
    X140 X140 0.0924488
    X141 X141 0.0485487
    X142 X142 0.0816572
    X143 X143 0.0939485
    X144 X144 0.036273
    X145 X145 0.0619749
    X146 X146 0.148232
    X147 X147 0.16049
    X148 X148 0.036138
    X149 X149 0.0443037
    X150 X150 0.140059
    X151 X151 0.0919398
    X152 X152 0.0471516
    X153 X153 0.159444
    X154 X154 0.133726
    X155 X155 0.0441975
    X156 X156 0.0347818
    X157 X157 0.0678354
    X158 X158 0.170673
    X159 X159 0.155126
    X160 X160 0.172925
    X161 X161 0.126609
    X162 X162 0.129365
    X163 X163 0.0665874
    X164 X164 0.160383
    X165 X165 0.153937
    X166 X166 0.0765847
    X167 X167 0.138792
    X168 X168 0.06381
    X169 X169 0.0307699
    X170 X170 0.0263369
    X171 X171 0.0840223
    X172 X172 0.102593
    X173 X173 0.076861
    X174 X174 0.04053
    X175 X175 0.0214599
    X176 X176 0.121821
    X177 X177 0.151812
    X178 X178 0.04991
    X179 X179 0.0212212
    X180 X180 0.117028
    X181 X181 0.0248994
    X182 X182 0.153892
    X183 X183 0.105965
    X184 X184 0.139364
    X185 X185 0.14311
    X186 X186 0.12548
    X187 X187 0.0378356
    X188 X188 0.0935925
    X189 X189 0.103974
    X190 X190 0.138473
    X191 X191 0.170311
    X192 X192 0.0749063
    X193 X193 0.16214
    X194 X194 0.0386554
    X195 X195 0.0954691
    X196 X196 0.0404102
    X197 X197 0.173997
    X198 X198 0.0312082
    X199 X199 0.146678
    X200 X200 0.0421133
    X201 X201 0.0617258
    X202 X202 0.103407
    X203 X203 0.0367918
    X204 X204 0.0462372
    X205 X205 0.0407417
    X206 X206 0.0216664
    X207 X207 0.167133
    X208 X208 0.128309
    X209 X209 0.0842951
    X210 X210 0.0866262
    X211 X211 0.0550413
    X212 X212 0.147234
    X213 X213 0.148545
    X214 X214 0.133934
    X215 X215 0.0685101
    X216 X216 0.0880267
    X217 X217 0.171889
    X218 X218 0.0781516
    X219 X219 0.151432
    X220 X220 0.0817215
    X221 X221 0.0825439
    X222 X222 0.073917
    X223 X223 0.173591
    X224 X224 0.0981988
    X225 X225 0.0610566
    X226 X226 0.084201
    X227 X227 0.0255057
    X228 X228 0.17537
    X229 X229 0.084823
    X230 X230 0.0245862
    X231 X231 0.175662
    X232 X232 0.0865187
    X233 X233 0.0436675
    X234 X234 0.0456057
    X235 X235 0.100495
    X236 X236 0.0272666
    X237 X237 0.0340497
    X238 X238 0.169423
    X239 X239 0.133955
    X240 X240 0.158418
    X241 X241 0.0496699
    X242 X242 0.0775139
    X243 X243 0.0373706
    X244 X244 0.156267
    X245 X245 0.0501473
    X246 X246 0.0385605
    X247 X247 0.0367366
    X248 X248 0.0794901
    X249 X249 0.0777366
    X250 X250 0.0476787
    X251 X251 0.0555502
    X252 X252 0.0225208
    X253 X253 0.159211
    X254 X254 0.152998
    X255 X255 0.0446542
    X256 X256 0.108343
    X257 X257 0.0960071
    X258 X258 0.030438
    X259 X259 0.0373024
    X260 X260 0.0485064
    X261 X261 0.0680361
    X262 X262 0.030902
    X263 X263 0.14085
    X264 X264 0.133655
    X265 X265 0.0356138
    X266 X266 0.0383896
    X267 X267 0.15813
    X268 X268 0.111126
    X269 X269 0.0789521
    X270 X270 0.0220219
    X271 X271 0.13128
    X272 X272 0.0363387
    X273 X273 0.0417187
    X274 X274 0.0580483
    X275 X275 0.113739
    X276 X276 0.160559
    X277 X277 0.108363
    X278 X278 0.0720786
    X279 X279 0.107651
    X280 X280 0.121397
    X281 X281 0.144545
    X282 X282 0.0587287
    X283 X283 0.110693
    X284 X284 0.102394
    X285 X285 0.152591
    X286 X286 0.0310113
    X287 X287 0.053119
    X288 X288 0.124693
    X289 X289 0.0505026
    X290 X290 0.111684
    X291 X291 0.0200879
    X292 X292 0.0476729
    X293 X293 0.153725
    X294 X294 0.0414575
    X295 X295 0.0638638
    X296 X296 0.107327
    X297 X297 0.149977
    X298 X298 0.0640335
    X299 X299 0.137074
    X300 X300 0.0226544
    X301 X301 0.148729
    X302 X302 0.0881376
    X303 X303 0.0944359
    X304 X304 0.126505
    X305 X305 0.17113
    X306 X306 0.090182
    X307 X307 0.0634478
    X308 X308 0.0597717
    X309 X309 0.0273566
    X310 X310 0.0596397
    X311 X311 0.116357
    X312 X312 0.0727674
    X313 X313 0.160966
    X314 X314 0.157835
    X315 X315 0.12253
    X316 X316 0.0686715
    X317 X317 0.134226
    X318 X318 0.172983
    X319 X319 0.0679776
    X320 X320 0.021001
    X321 X321 0.1798
    X322 X322 0.0578594
    X323 X323 0.127163
    X324 X324 0.157859
    X325 X325 0.0718438
    X326 X326 0.107972
    X327 X327 0.096238
    X328 X328 0.0206434
    X329 X329 0.132027
    X330 X330 0.146678
    X331 X331 0.0331343
    X332 X332 0.0694831
    X333 X333 0.0630359
    X334 X334 0.040271
    X335 X335 0.0931565
    X336 X336 0.0474926
    X337 X337 0.0535614
    X338 X338 0.0877097
    X339 X339 0.0883033
    X340 X340 0.0757028
    X341 X341 0.0902753
    X342 X342 0.063349
    X343 X343 0.0279694
    X344 X344 0.0463501
    X345 X345 0.0421733
    X346 X346 0.175515
    X347 X347 0.146705
    X348 X348 0.117059
    X349 X349 0.177952
    X350 X350 0.0768858
    X351 X351 0.122392
    X352 X352 0.0339657
    X353 X353 0.149153
    X354 X354 0.164759
    X355 X355 0.0565492
    X356 X356 0.0695806
    X357 X357 0.0627839
    X358 X358 0.0613963
    X359 X359 0.031013
    X360 X360 0.175731
    X361 X361 0.074139
    X362 X362 0.0965698
    X363 X363 0.0762102
    X364 X364 0.0886526
    X365 X365 0.0783246
    X366 X366 0.0407385
    X367 X367 0.0721018
    X368 X368 0.100862
    X369 X369 0.125616
    X370 X370 0.163041
    X371 X371 0.106334
    X372 X372 0.130401
    X373 X373 0.0918094
    X374 X374 0.102759
    X375 X375 0.149658
    X376 X376 0.0786794
    X377 X377 0.104301
    X378 X378 0.140319
    X379 X379 0.108641
    X380 X380 0.0945048
    X381 X381 0.12663
    X382 X382 0.0207618
    X383 X383 0.0415481
    X384 X384 0.0705049
    X385 X385 0.114131
    X386 X386 0.0397071
    X387 X387 0.0570331
    X388 X388 0.135104
    X389 X389 0.137453
    X390 X390 0.142619
    X391 X391 0.0282523
    X392 X392 0.148889
    X393 X393 0.129413
    X394 X394 0.0736247
    X395 X395 0.162411
    X396 X396 0.105468
    X397 X397 0.125202
    X398 X398 0.144423
    X399 X399 0.137826
    X400 X400 0.144936
    X401 X401 0.0779486
    X402 X402 0.173178
    X403 X403 0.117127
    X404 X404 0.0987068
    X405 X405 0.0421856
    X406 X406 0.140663
    X407 X407 0.127134
    X408 X408 0.0399522
    X409 X409 0.179197
    X410 X410 0.103696
    X411 X411 0.174615
    X412 X412 0.0974296
    X413 X413 0.0976098
    X414 X414 0.0795837
    X415 X415 0.0695898
    X416 X416 0.118961
    X417 X417 0.135971
    X418 X418 0.1789
    X419 X419 0.137684
    X420 X420 0.179624
    X421 X421 0.0483875
    X422 X422 0.16247
    X423 X423 0.067935
    X424 X424 0.0800888
    X425 X425 0.152857
    X426 X426 0.130499
    X427 X427 0.174236
    X428 X428 0.14663
    X429 X429 0.0278797
    X430 X430 0.0920687
    X431 X431 0.121786
    X432 X432 0.0334575
    X433 X433 0.175928
    X434 X434 0.168886
    X435 X435 0.0719324
    X436 X436 0.100575
    X437 X437 0.139615
    X438 X438 0.151913
    X439 X439 0.118905
    X440 X440 0.14043
    X441 X441 0.131148
    X442 X442 0.132131
    X443 X443 0.086612
    X444 X444 0.159441
    X445 X445 0.0908397
    X446 X446 0.0579383
    X447 X447 0.0710477
    X448 X448 0.072674
    X449 X449 0.0203975
    X450 X450 0.111872
    X451 X451 0.108425
    X452 X452 0.074577
    X453 X453 0.128613
    X454 X454 0.163589
    X455 X455 0.139172
    X456 X456 0.0848042
    X457 X457 0.171605
    X458 X458 0.169177
    X459 X459 0.0898548
    X460 X460 0.138444
    X461 X461 0.160416
    X462 X462 0.0781724
    X463 X463 0.178587
    X464 X464 0.115287
    X465 X465 0.0578331
    X466 X466 0.0505873
    X467 X467 0.151912
    X468 X468 0.0423052
    X469 X469 0.0898979
    X470 X470 0.0408381
    X471 X471 0.11491
    X472 X472 0.0795216
    X473 X473 0.0273648
    X474 X474 0.124889
    X475 X475 0.166822
    X476 X476 0.0648297
    X477 X477 0.095094
    X478 X478 0.160291
    X479 X479 0.0762656
    X480 X480 0.0865031
    X481 X481 0.175919
    X482 X482 0.128575
    X483 X483 0.150324
    X484 X484 0.0270921
    X485 X485 0.0658184
    X486 X486 0.0952085
    X487 X487 0.0889342
    X488 X488 0.0771275
    X489 X489 0.0336352
    X490 X490 0.0802378
    X491 X491 0.150873
    X492 X492 0.125636
    X493 X493 0.0579487
    X494 X494 0.0560453
    X495 X495 0.106259
    X496 X496 0.0542501
    X497 X497 0.129966
    X498 X498 0.109696
    X499 X499 0.165258
    X500 X500 0.0244246
    X501 X501 0.108701
    X502 X502 0.0696143
    X503 X503 0.0404819
    X504 X504 0.0886679
    X505 X505 0.0589986
    X506 X506 0.0318856
    X507 X507 0.150048
    X508 X508 0.0201554
    X509 X509 0.0332488
    X510 X510 0.137336
    X511 X511 0.0730258
    X512 X512 0.0263924
    X513 X513 0.0261463
    X514 X514 0.0658007
    X515 X515 0.171376
    X516 X516 0.166279
    X517 X517 0.16762
    X518 X518 0.0494513
    X519 X519 0.120279
    X520 X520 0.0539756
    X521 X521 0.110057
    X522 X522 0.0383834
    X523 X523 0.0679647
    X524 X524 0.0849338
    X525 X525 0.132786
    X526 X526 0.173786
    X527 X527 0.12218
    X528 X528 0.15685
    X529 X529 0.0861788
    X530 X530 0.0730683
    X531 X531 0.0437296
    X532 X532 0.0532955
    X533 X533 0.0843388
    X534 X534 0.0955303
    X535 X535 0.173221
    X536 X536 0.0513932
    X537 X537 0.156291
    X538 X538 0.0566752
    X539 X539 0.116239
    X540 X540 0.159718
    X541 X541 0.157468
    X542 X542 0.0280866
    X543 X543 0.126958
    X544 X544 0.0951593
    X545 X545 0.0857331
    X546 X546 0.162557
    X547 X547 0.0222861
    X548 X548 0.0224297
    X549 X549 0.0594132
    X550 X550 0.0819747
    X551 X551 0.0530026
    X552 X552 0.0839073
    X553 X553 0.0945542
    X554 X554 0.0300379
    X555 X555 0.132579
    X556 X556 0.144181
    X557 X557 0.0378892
    X558 X558 0.162417
    X559 X559 0.0311907
    X560 X560 0.0961863
    X561 X561 0.0613702
    X562 X562 0.0385536
    X563 X563 0.133085
    X564 X564 0.12613
    X565 X565 0.0301923
    X566 X566 0.021337
    X567 X567 0.0453155
    X568 X568 0.133864
    X569 X569 0.0352325
    X570 X570 0.08738
    X571 X571 0.14382
    X572 X572 0.0737048
    X573 X573 0.0876894
    X574 X574 0.170218
    X575 X575 0.043587
    X576 X576 0.135512
    X577 X577 0.112825
    X578 X578 0.134046
    X579 X579 0.133763
    X580 X580 0.119181
    X581 X581 0.100431
    X582 X582 0.0674154
    X583 X583 0.103948
    X584 X584 0.031005
    X585 X585 0.179837
    X586 X586 0.0444274
    X587 X587 0.112534
    X588 X588 0.0313719
    X589 X589 0.0261965
    X590 X590 0.158763
    X591 X591 0.123771
    X592 X592 0.154063
    X593 X593 0.0830045
    X594 X594 0.0920834
    X595 X595 0.163829
    X596 X596 0.133109
    X597 X597 0.112765
    X598 X598 0.0343889
    X599 X599 0.0625655
    X600 X600 0.156143
    X601 X601 0.13184
    X602 X602 0.0467203
    X603 X603 0.102693
    X604 X604 0.153021
    X605 X605 0.0721148
    X606 X606 0.0966059
    X607 X607 0.0958853
    X608 X608 0.147463
    X609 X609 0.107762
    X610 X610 0.171356
    X611 X611 0.162488
    X612 X612 0.110327
    X613 X613 0.173347
    X614 X614 0.127338
    X615 X615 0.129349
    X616 X616 0.0281118
    X617 X617 0.149652
    X618 X618 0.10241
    X619 X619 0.161755
    X620 X620 0.0730506
    X621 X621 0.101302
    X622 X622 0.0407152
    X623 X623 0.0555516
    X624 X624 0.142296
    X625 X625 0.111891
    X626 X626 0.122659
    X627 X627 0.133257
    X628 X628 0.102366
    X629 X629 0.0798339
    X630 X630 0.167371
    X631 X631 0.06331
    X632 X632 0.10335
    X633 X633 0.167909
    X634 X634 0.149634
    X635 X635 0.134277
    X636 X636 0.0473985
    X637 X637 0.0433494
    X638 X638 0.0970355
    X639 X639 0.118943
    X640 X640 0.0808624
    X641 X641 0.0295234
    X642 X642 0.119786
    X643 X643 0.0431307
    X644 X644 0.0426313
    X645 X645 0.163496
    X646 X646 0.064591
    X647 X647 0.0781713
    X648 X648 0.0926189
    X649 X649 0.167578
    X650 X650 0.148475
    X651 X651 0.140645
    X652 X652 0.142465
    X653 X653 0.0918492
    X654 X654 0.119556
    X655 X655 0.166209
    X656 X656 0.0767158
    X657 X657 0.153405
    X658 X658 0.171402
    X659 X659 0.106332
    X660 X660 0.0403744
    X661 X661 0.144174
    X662 X662 0.0485336
    X663 X663 0.133479
    X664 X664 0.0607786
    X665 X665 0.0594489
    X666 X666 0.0892142
    X667 X667 0.169883
    X668 X668 0.120952
    X669 X669 0.0300973
    X670 X670 0.144759
    X671 X671 0.041509
    X672 X672 0.111044
    X673 X673 0.0895474
    X674 X674 0.141446
    X675 X675 0.162958
    X676 X676 0.077491
    X677 X677 0.0728118
    X678 X678 0.137282
    X679 X679 0.169873
    X680 X680 0.0478539
    X681 X681 0.104673
    X682 X682 0.057812
    X683 X683 0.0719843
    X684 X684 0.142253
    X685 X685 0.158422
    X686 X686 0.080706
    X687 X687 0.0353338
    X688 X688 0.166389
    X689 X689 0.102862
    X690 X690 0.135435
    X691 X691 0.0332699
    X692 X692 0.121373
    X693 X693 0.0743562
    X694 X694 0.129706
    X695 X695 0.0327347
    X696 X696 0.0699959
    X697 X697 0.0886705
    X698 X698 0.160885
    X699 X699 0.0490002
    X700 X700 0.109654
    X701 X701 0.139189
    X702 X702 0.157422
    X703 X703 0.0617544
    X704 X704 0.141336
    X705 X705 0.122063
    X706 X706 0.125519
    X707 X707 0.0929106
    X708 X708 0.0478903
    X709 X709 0.0386383
    X710 X710 0.132688
    X711 X711 0.179896
    X712 X712 0.109125
    X713 X713 0.0536509
    X714 X714 0.161714
    X715 X715 0.0669305
    X716 X716 0.136718
    X717 X717 0.0641842
    X718 X718 0.152346
    X719 X719 0.0939959
    X720 X720 0.0510012
    X721 X721 0.021641
    X722 X722 0.0866969
    X723 X723 0.0673724
    X724 X724 0.108057
    X725 X725 0.126552
    X726 X726 0.155313
    X727 X727 0.0286186
    X728 X728 0.0897495
    X729 X729 0.132734
    X730 X730 0.158825
    X731 X731 0.114938
    X732 X732 0.0981585
    X733 X733 0.0208741
    X734 X734 0.13983
    X735 X735 0.0686068
    X736 X736 0.0723616
    X737 X737 0.0989664
    X738 X738 0.0971317
    X739 X739 0.141481
    X740 X740 0.167028
    X741 X741 0.170141
    X742 X742 0.154773
    X743 X743 0.136758
    X744 X744 0.16156
    X745 X745 0.0361409
    X746 X746 0.0765062
    X747 X747 0.0839681
    X748 X748 0.150522
    X749 X749 0.101537
    X750 X750 0.170701
    X751 X751 0.0684651
    X752 X752 0.175974
    X753 X753 0.0482409
    X754 X754 0.167099
    X755 X755 0.176985
    X756 X756 0.122423
    X757 X757 0.147902
    X758 X758 0.0349409
    X759 X759 0.0848188
    X760 X760 0.113588
    X761 X761 0.034299
    X762 X762 0.0874304
    X763 X763 0.169355
    X764 X764 0.141464
    X765 X765 0.150683
    X766 X766 0.159044
    X767 X767 0.161904
    X768 X768 0.0459614
    X769 X769 0.0220378
    X770 X770 0.0590173
    X771 X771 0.0993068
    X772 X772 0.145882
    X773 X773 0.0360114
    X774 X774 0.0641256
    X775 X775 0.160175
    X776 X776 0.0494001
    X777 X777 0.156059
    X778 X778 0.114206
    X779 X779 0.111737
    X780 X780 0.0675424
    X781 X781 0.159292
    X782 X782 0.123739
    X783 X783 0.151732
    X784 X784 0.170496
    X785 X785 0.0967887
    X786 X786 0.104404
    X787 X787 0.0686697
    X788 X788 0.0693301
    X789 X789 0.0980163
    X790 X790 0.142611
    X791 X791 0.118763
    X792 X792 0.0788802
    X793 X793 0.157159
    X794 X794 0.171575
    X795 X795 0.141101
    X796 X796 0.0676713
    X797 X797 0.0974686
    X798 X798 0.0223109
    X799 X799 0.124434
    X800 X800 0.157067
    X801 X801 0.0724144
    X802 X802 0.10465
    X803 X803 0.127588
    X804 X804 0.0989211
    X805 X805 0.104527
    X806 X806 0.0683842
    X807 X807 0.176736
    X808 X808 0.0285427
    X809 X809 0.0418278
    X810 X810 0.0551446
    X811 X811 0.0982267
    X812 X812 0.122789
    X813 X813 0.122268
    X814 X814 0.130413
    X815 X815 0.144043
    X816 X816 0.0462941
    X817 X817 0.175243
    X818 X818 0.172968
    X819 X819 0.0340011
    X820 X820 0.0851713
    X821 X821 0.103667
    X822 X822 0.0634427
    X823 X823 0.167268
    X824 X824 0.0939262
    X825 X825 0.107011
    X826 X826 0.103822
    X827 X827 0.147315
    X828 X828 0.138598
    X829 X829 0.114543
    X830 X830 0.0937566
    X831 X831 0.10448
    X832 X832 0.177925
    X833 X833 0.0805835
    X834 X834 0.148463
    X835 X835 0.149372
    X836 X836 0.122259
    X837 X837 0.0319753
    X838 X838 0.124578
    X839 X839 0.034165
    X840 X840 0.0707385
    X841 X841 0.13302
    X842 X842 0.150985
    X843 X843 0.038738
    X844 X844 0.0736513
    X845 X845 0.0208887
    X846 X846 0.125547
    X847 X847 0.143906
    X848 X848 0.0678134
    X849 X849 0.0965206
    X850 X850 0.112608
    X851 X851 0.149155
    X852 X852 0.127648
    X853 X853 0.119159
    X854 X854 0.0215015
    X855 X855 0.0236474
    X856 X856 0.131175
    X857 X857 0.1741
    X858 X858 0.115699
    X859 X859 0.0711385
    X860 X860 0.0861639
    X861 X861 0.0257454
    X862 X862 0.127516
    X863 X863 0.104691
    X864 X864 0.135142
    X865 X865 0.0497643
    X866 X866 0.0201077
    X867 X867 0.150946
    X868 X868 0.0426788
    X869 X869 0.120698
    X870 X870 0.0994858
    X871 X871 0.173498
    X872 X872 0.135712
    X873 X873 0.0396078
    X874 X874 0.127948
    X875 X875 0.0203465
    X876 X876 0.136885
    X877 X877 0.0417022
    X878 X878 0.0879973
    X879 X879 0.114134
    X880 X880 0.164811
    X881 X881 0.0652442
    X882 X882 0.0318523
    X883 X883 0.128894
    X884 X884 0.0733029
    X885 X885 0.0467965
    X886 X886 0.167833
    X887 X887 0.119512
    X888 X888 0.0999796
    X889 X889 0.0783844
    X890 X890 0.179966
    X891 X891 0.158514
    X892 X892 0.0529403
    X893 X893 0.110327
    X894 X894 0.141386
    X895 X895 0.160318
    X896 X896 0.142613
    X897 X897 0.145022
    X898 X898 0.147665
    X899 X899 0.0276152
    X900 X900 0.0917835
    X901 X901 0.0641893
    X902 X902 0.109803
    X903 X903 0.15664
    X904 X904 0.0242558
    X905 X905 0.0819568
    X906 X906 0.104242
    X907 X907 0.0630305
    X908 X908 0.0291652
    X909 X909 0.0436494
    X910 X910 0.0617489
    X911 X911 0.0834826
    X912 X912 0.0655283
    X913 X913 0.1606
    X914 X914 0.122492
    X915 X915 0.0873239
    X916 X916 0.103907
    X917 X917 0.118198
    X918 X918 0.0606902
    X919 X919 0.12109
    X920 X920 0.132372
    X921 X921 0.0646512
    X922 X922 0.161282
    X923 X923 0.141773
    X924 X924 0.0754813
    X925 X925 0.116679
    X926 X926 0.165451
    X927 X927 0.12476
    X928 X928 0.0223893
    X929 X929 0.0400437
    X930 X930 0.0304821
    X931 X931 0.027382
    X932 X932 0.0260642
    X933 X933 0.103963
    X934 X934 0.163426
    X935 X935 0.0987401
    X936 X936 0.161706
    X937 X937 0.0236059
    X938 X938 0.0615416
    X939 X939 0.0241612
    X940 X940 0.0365351
    X941 X941 0.138185
    X942 X942 0.153953
    X943 X943 0.0341373
    X944 X944 0.0954112
    X945 X945 0.113912
    X946 X946 0.148681
    X947 X947 0.0756634
    X948 X948 0.161536
    X949 X949 0.156325
    X950 X950 0.0712998
    X951 X951 0.145779
    X952 X952 0.0825574
    X953 X953 0.0574639
    X954 X954 0.132776
    X955 X955 0.0657808
    X956 X956 0.178634
    X957 X957 0.138791
    X958 X958 0.132132
    X959 X959 0.0319824
    X960 X960 0.171311
    X961 X961 0.159815
    X962 X962 0.0229978
    X963 X963 0.0595151
    X964 X964 0.176447
    X965 X965 0.0264333
    X966 X966 0.125038
    X967 X967 0.160578
    X968 X968 0.135091
    X969 X969 0.10346
    X970 X970 0.151776
    X971 X971 0.12388
    X972 X972 0.142978
    X973 X973 0.0861533
    X974 X974 0.140161
    X975 X975 0.164177
    X976 X976 0.0516909
    X977 X977 0.123551
    X978 X978 0.168298
    X979 X979 0.0313758
    X980 X980 0.129942
    X981 X981 0.100893
    X982 X982 0.138216
    X983 X983 0.0944645
    X984 X984 0.0544476
    X985 X985 0.144478
    X986 X986 0.142852
    X987 X987 0.0796786
    X988 X988 0.164617
    X989 X989 0.140969
    X990 X990 0.124913
    X991 X991 0.123756
    X992 X992 0.143907
    X993 X993 0.0697078
    X994 X994 0.0721153
    X995 X995 0.171662
    X996 X996 0.132538
    X997 X997 0.0264626
    X998 X998 0.145446
    X999 X999 0.112554
    X1000 X1000 0.120411
    X1001 X1001 0.144549
    X1002 X1002 0.15664
    X1003 X1003 0.0638942
    X1004 X1004 0.161884
    X1005 X1005 0.073502
    X1006 X1006 0.178363
    X1007 X1007 0.134708
    X1008 X1008 0.127189
    X1009 X1009 0.134245
    X1010 X1010 0.0670175
    X1011 X1011 0.100762
    X1012 X1012 0.0653361
    X1013 X1013 0.0623843
    X1014 X1014 0.169427
    X1015 X1015 0.0667941
    X1016 X1016 0.165971
    X1017 X1017 0.0285908
    X1018 X1018 0.146993
    X1019 X1019 0.176284
    X1020 X1020 0.0209644
    X1021 X1021 0.0581562
    X1022 X1022 0.103903
    X1023 X1023 0.126524
    X1024 X1024 0.144295
    X1025 X1025 0.0535158
    X1026 X1026 0.0445758
    X1027 X1027 0.166632
    X1028 X1028 0.124012
    X1029 X1029 0.0714944
    X1030 X1030 0.0785186
    X1031 X1031 0.0528635
    X1032 X1032 0.0570848
    X1033 X1033 0.114921
    X1034 X1034 0.0444093
    X1035 X1035 0.0787734
    X1036 X1036 0.0373873
    X1037 X1037 0.0346796
    X1038 X1038 0.156147
    X1039 X1039 0.157037
    X1040 X1040 0.170986
    X1041 X1041 0.0625809
    X1042 X1042 0.0696383
    X1043 X1043 0.177544
    X1044 X1044 0.126685
    X1045 X1045 0.176674
    X1046 X1046 0.154986
    X1047 X1047 0.0520763
    X1048 X1048 0.12112
    X1049 X1049 0.12189
    X1050 X1050 0.155587
    X1051 X1051 0.0752423
    X1052 X1052 0.124504
    X1053 X1053 0.15446
    X1054 X1054 0.139503
    X1055 X1055 0.0745536
    X1056 X1056 0.148149
    X1057 X1057 0.0920915
    X1058 X1058 0.0622391
    X1059 X1059 0.134239
    X1060 X1060 0.0576735
    X1061 X1061 0.129291
    X1062 X1062 0.108141
    X1063 X1063 0.0863407
    X1064 X1064 0.0453033
    X1065 X1065 0.0627813
    X1066 X1066 0.14435
    X1067 X1067 0.0954163
    X1068 X1068 0.07436
    X1069 X1069 0.161353
    X1070 X1070 0.164919
    X1071 X1071 0.152431
    X1072 X1072 0.141196
    X1073 X1073 0.14807
    X1074 X1074 0.0381442
    X1075 X1075 0.0901703
    X1076 X1076 0.161108
    X1077 X1077 0.16949
    X1078 X1078 0.0648133
    X1079 X1079 0.0528089
    X1080 X1080 0.112179
    X1081 X1081 0.172933
    X1082 X1082 0.116906
    X1083 X1083 0.119356
    X1084 X1084 0.0816884
    X1085 X1085 0.0962086
    X1086 X1086 0.0605301
    X1087 X1087 0.027138
    X1088 X1088 0.0733923
    X1089 X1089 0.167527
    X1090 X1090 0.119458
    X1091 X1091 0.0603184
    X1092 X1092 0.168919
    X1093 X1093 0.127765
    X1094 X1094 0.0269839
    X1095 X1095 0.0741275
    X1096 X1096 0.0591149
    X1097 X1097 0.0242521
    X1098 X1098 0.0559643
    X1099 X1099 0.0663111
    X1100 X1100 0.124299
    X1101 X1101 0.0769819
    X1102 X1102 0.143769
    X1103 X1103 0.0513284
    X1104 X1104 0.0753687
    X1105 X1105 0.131576
    X1106 X1106 0.145715
    X1107 X1107 0.0346667
    X1108 X1108 0.0286981
    X1109 X1109 0.085554
    X1110 X1110 0.0940924
    X1111 X1111 0.114287
    X1112 X1112 0.127601
    X1113 X1113 0.170156
    X1114 X1114 0.0983606
    X1115 X1115 0.0936453
    X1116 X1116 0.164792
    X1117 X1117 0.056632
    X1118 X1118 0.147602
    X1119 X1119 0.0682527
    X1120 X1120 0.0350549
    X1121 X1121 0.111227
    X1122 X1122 0.0909467
    X1123 X1123 0.0625365
    X1124 X1124 0.145896
    X1125 X1125 0.0684163
    X1126 X1126 0.124724
    X1127 X1127 0.165827
    X1128 X1128 0.113433
    X1129 X1129 0.0538952
    X1130 X1130 0.0800995
    X1131 X1131 0.0530899
    X1132 X1132 0.085309
    X1133 X1133 0.10077
    X1134 X1134 0.122486
    X1135 X1135 0.0725591
    X1136 X1136 0.104259
    X1137 X1137 0.172594
    X1138 X1138 0.0740998
    X1139 X1139 0.10209
    X1140 X1140 0.0710841
    X1141 X1141 0.175248
    X1142 X1142 0.0522183
    X1143 X1143 0.0832827
    X1144 X1144 0.0721191
    X1145 X1145 0.115703
    X1146 X1146 0.0261294
    X1147 X1147 0.140466
    X1148 X1148 0.0260449
    X1149 X1149 0.0500315
    X1150 X1150 0.176973
    X1151 X1151 0.0831315
    X1152 X1152 0.114692
    X1153 X1153 0.108104
    X1154 X1154 0.0657796
    X1155 X1155 0.0319999
    X1156 X1156 0.0642486
    X1157 X1157 0.0323697
    X1158 X1158 0.14577
    X1159 X1159 0.0482508
    X1160 X1160 0.155243
    X1161 X1161 0.0681444
    X1162 X1162 0.127959
    X1163 X1163 0.109474
    X1164 X1164 0.0375762
    X1165 X1165 0.139021
    X1166 X1166 0.0636031
    X1167 X1167 0.0471428
    X1168 X1168 0.058394
    X1169 X1169 0.124665
    X1170 X1170 0.0512286
    X1171 X1171 0.0879486
    X1172 X1172 0.082702
    X1173 X1173 0.128263
    X1174 X1174 0.0832352
    X1175 X1175 0.024519
    X1176 X1176 0.15287
    X1177 X1177 0.0281683
    X1178 X1178 0.175772
    X1179 X1179 0.17443
    X1180 X1180 0.0392449
    X1181 X1181 0.163465
    X1182 X1182 0.0621942
    X1183 X1183 0.0526214
    X1184 X1184 0.0654105
    X1185 X1185 0.111281
    X1186 X1186 0.0570812
    X1187 X1187 0.0742508
    X1188 X1188 0.0481514
    X1189 X1189 0.167452
    X1190 X1190 0.0327445
    X1191 X1191 0.0825302
    X1192 X1192 0.112132
    X1193 X1193 0.0212321
    X1194 X1194 0.0640182
    X1195 X1195 0.124627
    X1196 X1196 0.163739
    X1197 X1197 0.169864
    X1198 X1198 0.103665
    X1199 X1199 0.106236
    X1200 X1200 0.145764
    X1201 X1201 0.171136
    X1202 X1202 0.0405346
    X1203 X1203 0.132921
    X1204 X1204 0.0661986
    X1205 X1205 0.0437281
    X1206 X1206 0.134985
    X1207 X1207 0.0958575
    X1208 X1208 0.107616
    X1209 X1209 0.104668
    X1210 X1210 0.172322
    X1211 X1211 0.0623887
    X1212 X1212 0.159739
    X1213 X1213 0.106692
    X1214 X1214 0.155025
    X1215 X1215 0.0770609
    X1216 X1216 0.0849775
    X1217 X1217 0.139535
    X1218 X1218 0.0898091
    X1219 X1219 0.0371715
    X1220 X1220 0.0977803
    X1221 X1221 0.142053
    X1222 X1222 0.074029
    X1223 X1223 0.0991193
    X1224 X1224 0.105235
    X1225 X1225 0.103039
    X1226 X1226 0.118889
    X1227 X1227 0.0262308
    X1228 X1228 0.0591554
    X1229 X1229 0.064708
    X1230 X1230 0.0397949
    X1231 X1231 0.146006
    X1232 X1232 0.0686421
    X1233 X1233 0.106203
    X1234 X1234 0.141362
    X1235 X1235 0.162153
    X1236 X1236 0.0930586
    X1237 X1237 0.115652
    X1238 X1238 0.0497088
    X1239 X1239 0.0924203
    X1240 X1240 0.0213276
    X1241 X1241 0.0783361
    X1242 X1242 0.0874062
    X1243 X1243 0.131973
    X1244 X1244 0.0800358
    X1245 X1245 0.0995248
    X1246 X1246 0.142233
    X1247 X1247 0.100548
    X1248 X1248 0.0206675
    X1249 X1249 0.125787
    X1250 X1250 0.17753
    X1251 X1251 0.109981
    X1252 X1252 0.0662484
    X1253 X1253 0.134834
    X1254 X1254 0.0597951
    X1255 X1255 0.0682754
    X1256 X1256 0.0749041
    X1257 X1257 0.0842843
    X1258 X1258 0.093622
    X1259 X1259 0.136346
    X1260 X1260 0.0747047
    X1261 X1261 0.0511656
    X1262 X1262 0.0393975
    X1263 X1263 0.134897
    X1264 X1264 0.164997
    X1265 X1265 0.0298863
    X1266 X1266 0.0778235
    X1267 X1267 0.0882203
    X1268 X1268 0.0619162
    X1269 X1269 0.0928939
    X1270 X1270 0.14781
    X1271 X1271 0.147376
    X1272 X1272 0.0491526
    X1273 X1273 0.0451272
    X1274 X1274 0.0217576
    X1275 X1275 0.0346712
    X1276 X1276 0.0549054
    X1277 X1277 0.0604041
    X1278 X1278 0.174339
    X1279 X1279 0.112924
    X1280 X1280 0.0317844
    X1281 X1281 0.0634763
    X1282 X1282 0.0217351
    X1283 X1283 0.123394
    X1284 X1284 0.074386
    X1285 X1285 0.168001
    X1286 X1286 0.0334973
    X1287 X1287 0.178309
    X1288 X1288 0.111781
    X1289 X1289 0.0800122
    X1290 X1290 0.157457
    X1291 X1291 0.0990562
    X1292 X1292 0.0737504
    X1293 X1293 0.0537117
    X1294 X1294 0.087456
    X1295 X1295 0.0730367
    X1296 X1296 0.093897
    X1297 X1297 0.1494
    X1298 X1298 0.0516582
    X1299 X1299 0.17178
    X1300 X1300 0.156185
    X1301 X1301 0.0737283
    X1302 X1302 0.0386536
    X1303 X1303 0.172434
    X1304 X1304 0.122872
    X1305 X1305 0.0634642
    X1306 X1306 0.116642
    X1307 X1307 0.0819774
    X1308 X1308 0.0400094
    X1309 X1309 0.175268
    X1310 X1310 0.131905
    X1311 X1311 0.111729
    X1312 X1312 0.132708
    X1313 X1313 0.0662304
    X1314 X1314 0.116796
    X1315 X1315 0.108833
    X1316 X1316 0.163963
    X1317 X1317 0.0574877
    X1318 X1318 0.127591
    X1319 X1319 0.172742
    X1320 X1320 0.150233
    X1321 X1321 0.0628062
    X1322 X1322 0.155843
    X1323 X1323 0.159213
    X1324 X1324 0.102893
    X1325 X1325 0.106923
    X1326 X1326 0.0822001
    X1327 X1327 0.082654
    X1328 X1328 0.0496942
    X1329 X1329 0.074582
    X1330 X1330 0.116145
    X1331 X1331 0.0797633
    X1332 X1332 0.117458
    X1333 X1333 0.0261097
    X1334 X1334 0.0305692
    X1335 X1335 0.0735763
    X1336 X1336 0.0353024
    X1337 X1337 0.171361
    X1338 X1338 0.0387402
    X1339 X1339 0.118847
    X1340 X1340 0.179902
    X1341 X1341 0.0462605
    X1342 X1342 0.120483
    X1343 X1343 0.152903
    X1344 X1344 0.0303323
    X1345 X1345 0.105754
    X1346 X1346 0.129801
    X1347 X1347 0.162025
    X1348 X1348 0.120552
    X1349 X1349 0.0485678
    X1350 X1350 0.114248
    X1351 X1351 0.136357
    X1352 X1352 0.0498908
    X1353 X1353 0.155432
    X1354 X1354 0.0420283
    X1355 X1355 0.15488
    X1356 X1356 0.172708
    X1357 X1357 0.165485
    X1358 X1358 0.0636391
    X1359 X1359 0.126577
    X1360 X1360 0.105393
    X1361 X1361 0.0726034
    X1362 X1362 0.171456
    X1363 X1363 0.0368829
    X1364 X1364 0.156127
    X1365 X1365 0.147927
    X1366 X1366 0.0318042
    X1367 X1367 0.022124
    X1368 X1368 0.0935419
    X1369 X1369 0.151309
    X1370 X1370 0.175493
    X1371 X1371 0.122993
    X1372 X1372 0.134353
    X1373 X1373 0.0970971
    X1374 X1374 0.11789
    X1375 X1375 0.029375
    X1376 X1376 0.132263
    X1377 X1377 0.0417821
    X1378 X1378 0.0275801
    X1379 X1379 0.0659709
    X1380 X1380 0.0898315
    X1381 X1381 0.0778605
    X1382 X1382 0.0315035
    X1383 X1383 0.0342887
    X1384 X1384 0.163445
    X1385 X1385 0.129764
    X1386 X1386 0.157326
    X1387 X1387 0.177494
    X1388 X1388 0.109496
    X1389 X1389 0.159352
    X1390 X1390 0.165613
    X1391 X1391 0.0860415
    X1392 X1392 0.157117
    X1393 X1393 0.0429212
    X1394 X1394 0.0525308
    X1395 X1395 0.107967
    X1396 X1396 0.0940155
    X1397 X1397 0.116568
    X1398 X1398 0.0524819
    X1399 X1399 0.0579309
    X1400 X1400 0.0708315
    X1401 X1401 0.0254752
    X1402 X1402 0.144923
    X1403 X1403 0.153576
    X1404 X1404 0.135368
    X1405 X1405 0.121306
    X1406 X1406 0.0664571
    X1407 X1407 0.10747
    X1408 X1408 0.0495922
    X1409 X1409 0.0761609
    X1410 X1410 0.166052
    X1411 X1411 0.067245
    X1412 X1412 0.12507
    X1413 X1413 0.0843373
    X1414 X1414 0.173975
    X1415 X1415 0.114356
    X1416 X1416 0.039364
    X1417 X1417 0.176237
    X1418 X1418 0.0370158
    X1419 X1419 0.169638
    X1420 X1420 0.0501048
    X1421 X1421 0.0309675
    X1422 X1422 0.149414
    X1423 X1423 0.0989098
    X1424 X1424 0.144195
    X1425 X1425 0.0689764
    X1426 X1426 0.0254595
    X1427 X1427 0.0944641
    X1428 X1428 0.132744
    X1429 X1429 0.168794
    X1430 X1430 0.14831
    X1431 X1431 0.169674
    X1432 X1432 0.173445
    X1433 X1433 0.0858703
    X1434 X1434 0.104115
    X1435 X1435 0.131793
    X1436 X1436 0.128959
    X1437 X1437 0.171962
    X1438 X1438 0.114049
    X1439 X1439 0.0759136
    X1440 X1440 0.13934
    X1441 X1441 0.112708
    X1442 X1442 0.131444
    X1443 X1443 0.0347855
    X1444 X1444 0.0617671
    X1445 X1445 0.0575518
    X1446 X1446 0.0317606
    X1447 X1447 0.0769387
    X1448 X1448 0.0292645
    X1449 X1449 0.0250804
    X1450 X1450 0.171376
    X1451 X1451 0.13991
    X1452 X1452 0.0597451
    X1453 X1453 0.157044
    X1454 X1454 0.0671181
    X1455 X1455 0.0472578
    X1456 X1456 0.0576934
    X1457 X1457 0.0642255
    X1458 X1458 0.0482865
    X1459 X1459 0.09773
    X1460 X1460 0.16373
    X1461 X1461 0.057776
    X1462 X1462 0.116219
    X1463 X1463 0.128703
    X1464 X1464 0.0532025
    X1465 X1465 0.0594508
    X1466 X1466 0.070064
    X1467 X1467 0.170566
    X1468 X1468 0.061053
    X1469 X1469 0.116949
    X1470 X1470 0.116309
    X1471 X1471 0.167702
    X1472 X1472 0.0902099
    X1473 X1473 0.0491138
    X1474 X1474 0.033339
    X1475 X1475 0.0876683
    X1476 X1476 0.179446
    X1477 X1477 0.100462
    X1478 X1478 0.140974
    X1479 X1479 0.17822
    X1480 X1480 0.0303313
    X1481 X1481 0.0664278
    X1482 X1482 0.144404
    X1483 X1483 0.158613
    X1484 X1484 0.164927
    X1485 X1485 0.0307602
    X1486 X1486 0.175805
    X1487 X1487 0.0734488
    X1488 X1488 0.157284
    X1489 X1489 0.124731
    X1490 X1490 0.0291802
    X1491 X1491 0.118422
    X1492 X1492 0.0517139
    X1493 X1493 0.109947
    X1494 X1494 0.0978576
    X1495 X1495 0.173589
    X1496 X1496 0.0884497
    X1497 X1497 0.0476405
    X1498 X1498 0.0805466
    X1499 X1499 0.0238592
    F0 F0 2
    F1 F1 2
    F2 F2 2
    F3 F3 2
    F4 F4 2
    F5 F5 2
    F6 F6 2
    F7 F7 2
    F8 F8 2
    F9 F9 2
    F10 F10 2
    F11 F11 2
    F12 F12 2
    F13 F13 2
    F14 F14 2
ENDATA
