NAME QBLEND_C10_P5_K3_T12
ROWS
 N COST
 L CAP_0
 E CB_0_0
 E CB_1_0
 E CB_2_0
 E CB_3_0
 E CB_4_0
 E CB_5_0
 E CB_6_0
 E CB_7_0
 E CB_8_0
 E CB_9_0
 E PB_0_0
 E PB_1_0
 E PB_2_0
 E PB_3_0
 E PB_4_0
 L Q_0_0_0
 L Q_0_1_0
 L Q_0_2_0
 L Q_1_0_0
 L Q_1_1_0
 L Q_1_2_0
 L Q_2_0_0
 L Q_2_1_0
 L Q_2_2_0
 L Q_3_0_0
 L Q_3_1_0
 L Q_3_2_0
 L Q_4_0_0
 L Q_4_1_0
 L Q_4_2_0
 L CAP_1
 E CB_0_1
 E CB_1_1
 E CB_2_1
 E CB_3_1
 E CB_4_1
 E CB_5_1
 E CB_6_1
 E CB_7_1
 E CB_8_1
 E CB_9_1
 E PB_0_1
 E PB_1_1
 E PB_2_1
 E PB_3_1
 E PB_4_1
 L Q_0_0_1
 L Q_0_1_1
 L Q_0_2_1
 L Q_1_0_1
 L Q_1_1_1
 L Q_1_2_1
 L Q_2_0_1
 L Q_2_1_1
 L Q_2_2_1
 L Q_3_0_1
 L Q_3_1_1
 L Q_3_2_1
 L Q_4_0_1
 L Q_4_1_1
 L Q_4_2_1
 L CAP_2
 E CB_0_2
 E CB_1_2
 E CB_2_2
 E CB_3_2
 E CB_4_2
 E CB_5_2
 E CB_6_2
 E CB_7_2
 E CB_8_2
 E CB_9_2
 E PB_0_2
 E PB_1_2
 E PB_2_2
 E PB_3_2
 E PB_4_2
 L Q_0_0_2
 L Q_0_1_2
 L Q_0_2_2
 L Q_1_0_2
 L Q_1_1_2
 L Q_1_2_2
 L Q_2_0_2
 L Q_2_1_2
 L Q_2_2_2
 L Q_3_0_2
 L Q_3_1_2
 L Q_3_2_2
 L Q_4_0_2
 L Q_4_1_2
 L Q_4_2_2
 L CAP_3
 E CB_0_3
 E CB_1_3
 E CB_2_3
 E CB_3_3
 E CB_4_3
 E CB_5_3
 E CB_6_3
 E CB_7_3
 E CB_8_3
 E CB_9_3
 E PB_0_3
 E PB_1_3
 E PB_2_3
 E PB_3_3
 E PB_4_3
 L Q_0_0_3
 L Q_0_1_3
 L Q_0_2_3
 L Q_1_0_3
 L Q_1_1_3
 L Q_1_2_3
 L Q_2_0_3
 L Q_2_1_3
 L Q_2_2_3
 L Q_3_0_3
 L Q_3_1_3
 L Q_3_2_3
 L Q_4_0_3
 L Q_4_1_3
 L Q_4_2_3
 L CAP_4
 E CB_0_4
 E CB_1_4
 E CB_2_4
 E CB_3_4
 E CB_4_4
 E CB_5_4
 E CB_6_4
 E CB_7_4
 E CB_8_4
 E CB_9_4
 E PB_0_4
 E PB_1_4
 E PB_2_4
 E PB_3_4
 E PB_4_4
 L Q_0_0_4
 L Q_0_1_4
 L Q_0_2_4
 L Q_1_0_4
 L Q_1_1_4
 L Q_1_2_4
 L Q_2_0_4
 L Q_2_1_4
 L Q_2_2_4
 L Q_3_0_4
 L Q_3_1_4
 L Q_3_2_4
 L Q_4_0_4
 L Q_4_1_4
 L Q_4_2_4
 L CAP_5
 E CB_0_5
 E CB_1_5
 E CB_2_5
 E CB_3_5
 E CB_4_5
 E CB_5_5
 E CB_6_5
 E CB_7_5
 E CB_8_5
 E CB_9_5
 E PB_0_5
 E PB_1_5
 E PB_2_5
 E PB_3_5
 E PB_4_5
 L Q_0_0_5
 L Q_0_1_5
 L Q_0_2_5
 L Q_1_0_5
 L Q_1_1_5
 L Q_1_2_5
 L Q_2_0_5
 L Q_2_1_5
 L Q_2_2_5
 L Q_3_0_5
 L Q_3_1_5
 L Q_3_2_5
 L Q_4_0_5
 L Q_4_1_5
 L Q_4_2_5
 L CAP_6
 E CB_0_6
 E CB_1_6
 E CB_2_6
 E CB_3_6
 E CB_4_6
 E CB_5_6
 E CB_6_6
 E CB_7_6
 E CB_8_6
 E CB_9_6
 E PB_0_6
 E PB_1_6
 E PB_2_6
 E PB_3_6
 E PB_4_6
 L Q_0_0_6
 L Q_0_1_6
 L Q_0_2_6
 L Q_1_0_6
 L Q_1_1_6
 L Q_1_2_6
 L Q_2_0_6
 L Q_2_1_6
 L Q_2_2_6
 L Q_3_0_6
 L Q_3_1_6
 L Q_3_2_6
 L Q_4_0_6
 L Q_4_1_6
 L Q_4_2_6
 L CAP_7
 E CB_0_7
 E CB_1_7
 E CB_2_7
 E CB_3_7
 E CB_4_7
 E CB_5_7
 E CB_6_7
 E CB_7_7
 E CB_8_7
 E CB_9_7
 E PB_0_7
 E PB_1_7
 E PB_2_7
 E PB_3_7
 E PB_4_7
 L Q_0_0_7
 L Q_0_1_7
 L Q_0_2_7
 L Q_1_0_7
 L Q_1_1_7
 L Q_1_2_7
 L Q_2_0_7
 L Q_2_1_7
 L Q_2_2_7
 L Q_3_0_7
 L Q_3_1_7
 L Q_3_2_7
 L Q_4_0_7
 L Q_4_1_7
 L Q_4_2_7
 L CAP_8
 E CB_0_8
 E CB_1_8
 E CB_2_8
 E CB_3_8
 E CB_4_8
 E CB_5_8
 E CB_6_8
 E CB_7_8
 E CB_8_8
 E CB_9_8
 E PB_0_8
 E PB_1_8
 E PB_2_8
 E PB_3_8
 E PB_4_8
 L Q_0_0_8
 L Q_0_1_8
 L Q_0_2_8
 L Q_1_0_8
 L Q_1_1_8
 L Q_1_2_8
 L Q_2_0_8
 L Q_2_1_8
 L Q_2_2_8
 L Q_3_0_8
 L Q_3_1_8
 L Q_3_2_8
 L Q_4_0_8
 L Q_4_1_8
 L Q_4_2_8
 L CAP_9
 E CB_0_9
 E CB_1_9
 E CB_2_9
 E CB_3_9
 E CB_4_9
 E CB_5_9
 E CB_6_9
 E CB_7_9
 E CB_8_9
 E CB_9_9
 E PB_0_9
 E PB_1_9
 E PB_2_9
 E PB_3_9
 E PB_4_9
 L Q_0_0_9
 L Q_0_1_9
 L Q_0_2_9
 L Q_1_0_9
 L Q_1_1_9
 L Q_1_2_9
 L Q_2_0_9
 L Q_2_1_9
 L Q_2_2_9
 L Q_3_0_9
 L Q_3_1_9
 L Q_3_2_9
 L Q_4_0_9
 L Q_4_1_9
 L Q_4_2_9
 L CAP_10
 E CB_0_10
 E CB_1_10
 E CB_2_10
 E CB_3_10
 E CB_4_10
 E CB_5_10
 E CB_6_10
 E CB_7_10
 E CB_8_10
 E CB_9_10
 E PB_0_10
 E PB_1_10
 E PB_2_10
 E PB_3_10
 E PB_4_10
 L Q_0_0_10
 L Q_0_1_10
 L Q_0_2_10
 L Q_1_0_10
 L Q_1_1_10
 L Q_1_2_10
 L Q_2_0_10
 L Q_2_1_10
 L Q_2_2_10
 L Q_3_0_10
 L Q_3_1_10
 L Q_3_2_10
 L Q_4_0_10
 L Q_4_1_10
 L Q_4_2_10
 L CAP_11
 E CB_0_11
 E CB_1_11
 E CB_2_11
 E CB_3_11
 E CB_4_11
 E CB_5_11
 E CB_6_11
 E CB_7_11
 E CB_8_11
 E CB_9_11
 E PB_0_11
 E PB_1_11
 E PB_2_11
 E PB_3_11
 E PB_4_11
 L Q_0_0_11
 L Q_0_1_11
 L Q_0_2_11
 L Q_1_0_11
 L Q_1_1_11
 L Q_1_2_11
 L Q_2_0_11
 L Q_2_1_11
 L Q_2_2_11
 L Q_3_0_11
 L Q_3_1_11
 L Q_3_2_11
 L Q_4_0_11
 L Q_4_1_11
 L Q_4_2_11
COLUMNS
    BUY_0_0 COST 70.6181
    BUY_0_0 CB_0_0 1
    INV_0_0 COST 0.2
    INV_0_0 CB_0_0 -1
    INV_0_0 CB_0_1 1
    X_0_0_0 CB_0_0 -1
    X_0_0_0 PB_0_0 1
    X_0_0_0 CAP_0 1
    X_0_0_0 Q_0_0_0 -0.404888
    X_0_0_0 Q_0_1_0 -0.40389
    X_0_0_0 Q_0_2_0 -0.398451
    X_0_1_0 CB_0_0 -1
    X_0_1_0 PB_1_0 1
    X_0_1_0 CAP_0 1
    X_0_1_0 Q_1_0_0 -0.506822
    X_0_1_0 Q_1_1_0 -0.430402
    X_0_1_0 Q_1_2_0 -0.30967
    X_0_2_0 CB_0_0 -1
    X_0_2_0 PB_2_0 1
    X_0_2_0 CAP_0 1
    X_0_2_0 Q_2_0_0 -0.67691
    X_0_2_0 Q_2_1_0 -0.550404
    X_0_2_0 Q_2_2_0 -0.589032
    X_0_3_0 CB_0_0 -1
    X_0_3_0 PB_3_0 1
    X_0_3_0 CAP_0 1
    X_0_3_0 Q_3_0_0 -0.383658
    X_0_3_0 Q_3_1_0 -0.746645
    X_0_3_0 Q_3_2_0 -0.686976
    X_0_4_0 CB_0_0 -1
    X_0_4_0 PB_4_0 1
    X_0_4_0 CAP_0 1
    X_0_4_0 Q_4_0_0 -0.3544
    X_0_4_0 Q_4_1_0 -0.449713
    X_0_4_0 Q_4_2_0 -0.624668
    BUY_1_0 COST 89.8519
    BUY_1_0 CB_1_0 1
    INV_1_0 COST 0.2
    INV_1_0 CB_1_0 -1
    INV_1_0 CB_1_1 1
    X_1_0_0 CB_1_0 -1
    X_1_0_0 PB_0_0 1
    X_1_0_0 CAP_0 1
    X_1_0_0 Q_0_0_0 -0.162572
    X_1_0_0 Q_0_1_0 0.0667734
    X_1_0_0 Q_0_2_0 0.028565
    X_1_1_0 CB_1_0 -1
    X_1_1_0 PB_1_0 1
    X_1_1_0 CAP_0 1
    X_1_1_0 Q_1_0_0 -0.264506
    X_1_1_0 Q_1_1_0 0.0402616
    X_1_1_0 Q_1_2_0 0.117346
    X_1_2_0 CB_1_0 -1
    X_1_2_0 PB_2_0 1
    X_1_2_0 CAP_0 1
    X_1_2_0 Q_2_0_0 -0.434595
    X_1_2_0 Q_2_1_0 -0.0797411
    X_1_2_0 Q_2_2_0 -0.162016
    X_1_3_0 CB_1_0 -1
    X_1_3_0 PB_3_0 1
    X_1_3_0 CAP_0 1
    X_1_3_0 Q_3_0_0 -0.141342
    X_1_3_0 Q_3_1_0 -0.275981
    X_1_3_0 Q_3_2_0 -0.259959
    X_1_4_0 CB_1_0 -1
    X_1_4_0 PB_4_0 1
    X_1_4_0 CAP_0 1
    X_1_4_0 Q_4_0_0 -0.112085
    X_1_4_0 Q_4_1_0 0.0209505
    X_1_4_0 Q_4_2_0 -0.197651
    BUY_2_0 COST 61.2083
    BUY_2_0 CB_2_0 1
    INV_2_0 COST 0.2
    INV_2_0 CB_2_0 -1
    INV_2_0 CB_2_1 1
    X_2_0_0 CB_2_0 -1
    X_2_0_0 PB_0_0 1
    X_2_0_0 CAP_0 1
    X_2_0_0 Q_0_0_0 0.214125
    X_2_0_0 Q_0_1_0 0.345397
    X_2_0_0 Q_0_2_0 -0.309285
    X_2_1_0 CB_2_0 -1
    X_2_1_0 PB_1_0 1
    X_2_1_0 CAP_0 1
    X_2_1_0 Q_1_0_0 0.112192
    X_2_1_0 Q_1_1_0 0.318885
    X_2_1_0 Q_1_2_0 -0.220504
    X_2_2_0 CB_2_0 -1
    X_2_2_0 PB_2_0 1
    X_2_2_0 CAP_0 1
    X_2_2_0 Q_2_0_0 -0.0578968
    X_2_2_0 Q_2_1_0 0.198883
    X_2_2_0 Q_2_2_0 -0.499866
    X_2_3_0 CB_2_0 -1
    X_2_3_0 PB_3_0 1
    X_2_3_0 CAP_0 1
    X_2_3_0 Q_3_0_0 0.235356
    X_2_3_0 Q_3_1_0 0.00264265
    X_2_3_0 Q_3_2_0 -0.597809
    X_2_4_0 CB_2_0 -1
    X_2_4_0 PB_4_0 1
    X_2_4_0 CAP_0 1
    X_2_4_0 Q_4_0_0 0.264613
    X_2_4_0 Q_4_1_0 0.299574
    X_2_4_0 Q_4_2_0 -0.535501
    BUY_3_0 COST 79.7618
    BUY_3_0 CB_3_0 1
    INV_3_0 COST 0.2
    INV_3_0 CB_3_0 -1
    INV_3_0 CB_3_1 1
    X_3_0_0 CB_3_0 -1
    X_3_0_0 PB_0_0 1
    X_3_0_0 CAP_0 1
    X_3_0_0 Q_0_0_0 -0.377958
    X_3_0_0 Q_0_1_0 0.390087
    X_3_0_0 Q_0_2_0 0.0126772
    X_3_1_0 CB_3_0 -1
    X_3_1_0 PB_1_0 1
    X_3_1_0 CAP_0 1
    X_3_1_0 Q_1_0_0 -0.479891
    X_3_1_0 Q_1_1_0 0.363575
    X_3_1_0 Q_1_2_0 0.101458
    X_3_2_0 CB_3_0 -1
    X_3_2_0 PB_2_0 1
    X_3_2_0 CAP_0 1
    X_3_2_0 Q_2_0_0 -0.64998
    X_3_2_0 Q_2_1_0 0.243572
    X_3_2_0 Q_2_2_0 -0.177904
    X_3_3_0 CB_3_0 -1
    X_3_3_0 PB_3_0 1
    X_3_3_0 CAP_0 1
    X_3_3_0 Q_3_0_0 -0.356728
    X_3_3_0 Q_3_1_0 0.0473323
    X_3_3_0 Q_3_2_0 -0.275847
    X_3_4_0 CB_3_0 -1
    X_3_4_0 PB_4_0 1
    X_3_4_0 CAP_0 1
    X_3_4_0 Q_4_0_0 -0.32747
    X_3_4_0 Q_4_1_0 0.344264
    X_3_4_0 Q_4_2_0 -0.213539
    BUY_4_0 COST 66.8031
    BUY_4_0 CB_4_0 1
    INV_4_0 COST 0.2
    INV_4_0 CB_4_0 -1
    INV_4_0 CB_4_1 1
    X_4_0_0 CB_4_0 -1
    X_4_0_0 PB_0_0 1
    X_4_0_0 CAP_0 1
    X_4_0_0 Q_0_0_0 0.319278
    X_4_0_0 Q_0_1_0 -0.401889
    X_4_0_0 Q_0_2_0 0.0246664
    X_4_1_0 CB_4_0 -1
    X_4_1_0 PB_1_0 1
    X_4_1_0 CAP_0 1
    X_4_1_0 Q_1_0_0 0.217345
    X_4_1_0 Q_1_1_0 -0.428401
    X_4_1_0 Q_1_2_0 0.113447
    X_4_2_0 CB_4_0 -1
    X_4_2_0 PB_2_0 1
    X_4_2_0 CAP_0 1
    X_4_2_0 Q_2_0_0 0.047256
    X_4_2_0 Q_2_1_0 -0.548404
    X_4_2_0 Q_2_2_0 -0.165915
    X_4_3_0 CB_4_0 -1
    X_4_3_0 PB_3_0 1
    X_4_3_0 CAP_0 1
    X_4_3_0 Q_3_0_0 0.340508
    X_4_3_0 Q_3_1_0 -0.744644
    X_4_3_0 Q_3_2_0 -0.263858
    X_4_4_0 CB_4_0 -1
    X_4_4_0 PB_4_0 1
    X_4_4_0 CAP_0 1
    X_4_4_0 Q_4_0_0 0.369766
    X_4_4_0 Q_4_1_0 -0.447712
    X_4_4_0 Q_4_2_0 -0.20155
    BUY_5_0 COST 56.1966
    BUY_5_0 CB_5_0 1
    INV_5_0 COST 0.2
    INV_5_0 CB_5_0 -1
    INV_5_0 CB_5_1 1
    X_5_0_0 CB_5_0 -1
    X_5_0_0 PB_0_0 1
    X_5_0_0 CAP_0 1
    X_5_0_0 Q_0_0_0 0.280575
    X_5_0_0 Q_0_1_0 -0.186566
    X_5_0_0 Q_0_2_0 0.499556
    X_5_1_0 CB_5_0 -1
    X_5_1_0 PB_1_0 1
    X_5_1_0 CAP_0 1
    X_5_1_0 Q_1_0_0 0.178641
    X_5_1_0 Q_1_1_0 -0.213078
    X_5_1_0 Q_1_2_0 0.588337
    X_5_2_0 CB_5_0 -1
    X_5_2_0 PB_2_0 1
    X_5_2_0 CAP_0 1
    X_5_2_0 Q_2_0_0 0.00855294
    X_5_2_0 Q_2_1_0 -0.33308
    X_5_2_0 Q_2_2_0 0.308975
    X_5_3_0 CB_5_0 -1
    X_5_3_0 PB_3_0 1
    X_5_3_0 CAP_0 1
    X_5_3_0 Q_3_0_0 0.301805
    X_5_3_0 Q_3_1_0 -0.52932
    X_5_3_0 Q_3_2_0 0.211031
    X_5_4_0 CB_5_0 -1
    X_5_4_0 PB_4_0 1
    X_5_4_0 CAP_0 1
    X_5_4_0 Q_4_0_0 0.331063
    X_5_4_0 Q_4_1_0 -0.232389
    X_5_4_0 Q_4_2_0 0.273339
    BUY_6_0 COST 69.4101
    BUY_6_0 CB_6_0 1
    INV_6_0 COST 0.2
    INV_6_0 CB_6_0 -1
    INV_6_0 CB_6_1 1
    X_6_0_0 CB_6_0 -1
    X_6_0_0 PB_0_0 1
    X_6_0_0 CAP_0 1
    X_6_0_0 Q_0_0_0 0.451468
    X_6_0_0 Q_0_1_0 -0.374829
    X_6_0_0 Q_0_2_0 -0.374278
    X_6_1_0 CB_6_0 -1
    X_6_1_0 PB_1_0 1
    X_6_1_0 CAP_0 1
    X_6_1_0 Q_1_0_0 0.349535
    X_6_1_0 Q_1_1_0 -0.401341
    X_6_1_0 Q_1_2_0 -0.285497
    X_6_2_0 CB_6_0 -1
    X_6_2_0 PB_2_0 1
    X_6_2_0 CAP_0 1
    X_6_2_0 Q_2_0_0 0.179446
    X_6_2_0 Q_2_1_0 -0.521344
    X_6_2_0 Q_2_2_0 -0.564859
    X_6_3_0 CB_6_0 -1
    X_6_3_0 PB_3_0 1
    X_6_3_0 CAP_0 1
    X_6_3_0 Q_3_0_0 0.472698
    X_6_3_0 Q_3_1_0 -0.717584
    X_6_3_0 Q_3_2_0 -0.662802
    X_6_4_0 CB_6_0 -1
    X_6_4_0 PB_4_0 1
    X_6_4_0 CAP_0 1
    X_6_4_0 Q_4_0_0 0.501956
    X_6_4_0 Q_4_1_0 -0.420652
    X_6_4_0 Q_4_2_0 -0.600494
    BUY_7_0 COST 84.7905
    BUY_7_0 CB_7_0 1
    INV_7_0 COST 0.2
    INV_7_0 CB_7_0 -1
    INV_7_0 CB_7_1 1
    X_7_0_0 CB_7_0 -1
    X_7_0_0 PB_0_0 1
    X_7_0_0 CAP_0 1
    X_7_0_0 Q_0_0_0 0.109454
    X_7_0_0 Q_0_1_0 0.488302
    X_7_0_0 Q_0_2_0 -0.0363074
    X_7_1_0 CB_7_0 -1
    X_7_1_0 PB_1_0 1
    X_7_1_0 CAP_0 1
    X_7_1_0 Q_1_0_0 0.00752029
    X_7_1_0 Q_1_1_0 0.46179
    X_7_1_0 Q_1_2_0 0.0524737
    X_7_2_0 CB_7_0 -1
    X_7_2_0 PB_2_0 1
    X_7_2_0 CAP_0 1
    X_7_2_0 Q_2_0_0 -0.162568
    X_7_2_0 Q_2_1_0 0.341787
    X_7_2_0 Q_2_2_0 -0.226888
    X_7_3_0 CB_7_0 -1
    X_7_3_0 PB_3_0 1
    X_7_3_0 CAP_0 1
    X_7_3_0 Q_3_0_0 0.130684
    X_7_3_0 Q_3_1_0 0.145547
    X_7_3_0 Q_3_2_0 -0.324832
    X_7_4_0 CB_7_0 -1
    X_7_4_0 PB_4_0 1
    X_7_4_0 CAP_0 1
    X_7_4_0 Q_4_0_0 0.159941
    X_7_4_0 Q_4_1_0 0.442479
    X_7_4_0 Q_4_2_0 -0.262524
    BUY_8_0 COST 82.5366
    BUY_8_0 CB_8_0 1
    INV_8_0 COST 0.2
    INV_8_0 CB_8_0 -1
    INV_8_0 CB_8_1 1
    X_8_0_0 CB_8_0 -1
    X_8_0_0 PB_0_0 1
    X_8_0_0 CAP_0 1
    X_8_0_0 Q_0_0_0 -0.199119
    X_8_0_0 Q_0_1_0 -0.0028792
    X_8_0_0 Q_0_2_0 -0.370863
    X_8_1_0 CB_8_0 -1
    X_8_1_0 PB_1_0 1
    X_8_1_0 CAP_0 1
    X_8_1_0 Q_1_0_0 -0.301052
    X_8_1_0 Q_1_1_0 -0.029391
    X_8_1_0 Q_1_2_0 -0.282082
    X_8_2_0 CB_8_0 -1
    X_8_2_0 PB_2_0 1
    X_8_2_0 CAP_0 1
    X_8_2_0 Q_2_0_0 -0.471141
    X_8_2_0 Q_2_1_0 -0.149394
    X_8_2_0 Q_2_2_0 -0.561444
    X_8_3_0 CB_8_0 -1
    X_8_3_0 PB_3_0 1
    X_8_3_0 CAP_0 1
    X_8_3_0 Q_3_0_0 -0.177888
    X_8_3_0 Q_3_1_0 -0.345634
    X_8_3_0 Q_3_2_0 -0.659387
    X_8_4_0 CB_8_0 -1
    X_8_4_0 PB_4_0 1
    X_8_4_0 CAP_0 1
    X_8_4_0 Q_4_0_0 -0.148631
    X_8_4_0 Q_4_1_0 -0.0487021
    X_8_4_0 Q_4_2_0 -0.597079
    BUY_9_0 COST 64.7307
    BUY_9_0 CB_9_0 1
    INV_9_0 COST 0.2
    INV_9_0 CB_9_0 -1
    INV_9_0 CB_9_1 1
    X_9_0_0 CB_9_0 -1
    X_9_0_0 PB_0_0 1
    X_9_0_0 CAP_0 1
    X_9_0_0 Q_0_0_0 -0.194281
    X_9_0_0 Q_0_1_0 0.0121033
    X_9_0_0 Q_0_2_0 0.0725702
    X_9_1_0 CB_9_0 -1
    X_9_1_0 PB_1_0 1
    X_9_1_0 CAP_0 1
    X_9_1_0 Q_1_0_0 -0.296214
    X_9_1_0 Q_1_1_0 -0.0144085
    X_9_1_0 Q_1_2_0 0.161351
    X_9_2_0 CB_9_0 -1
    X_9_2_0 PB_2_0 1
    X_9_2_0 CAP_0 1
    X_9_2_0 Q_2_0_0 -0.466303
    X_9_2_0 Q_2_1_0 -0.134411
    X_9_2_0 Q_2_2_0 -0.118011
    X_9_3_0 CB_9_0 -1
    X_9_3_0 PB_3_0 1
    X_9_3_0 CAP_0 1
    X_9_3_0 Q_3_0_0 -0.173051
    X_9_3_0 Q_3_1_0 -0.330651
    X_9_3_0 Q_3_2_0 -0.215954
    X_9_4_0 CB_9_0 -1
    X_9_4_0 PB_4_0 1
    X_9_4_0 CAP_0 1
    X_9_4_0 Q_4_0_0 -0.143793
    X_9_4_0 Q_4_1_0 -0.0337196
    X_9_4_0 Q_4_2_0 -0.153646
    SELL_0_0 COST -110.155
    SELL_0_0 PB_0_0 -1
    PINV_0_0 COST 0.5
    PINV_0_0 PB_0_0 -1
    PINV_0_0 PB_0_1 1
    SELL_1_0 COST -74.1159
    SELL_1_0 PB_1_0 -1
    PINV_1_0 COST 0.5
    PINV_1_0 PB_1_0 -1
    PINV_1_0 PB_1_1 1
    SELL_2_0 COST -87.8301
    SELL_2_0 PB_2_0 -1
    PINV_2_0 COST 0.5
    PINV_2_0 PB_2_0 -1
    PINV_2_0 PB_2_1 1
    SELL_3_0 COST -121.487
    SELL_3_0 PB_3_0 -1
    PINV_3_0 COST 0.5
    PINV_3_0 PB_3_0 -1
    PINV_3_0 PB_3_1 1
    SELL_4_0 COST -95.4409
    SELL_4_0 PB_4_0 -1
    PINV_4_0 COST 0.5
    PINV_4_0 PB_4_0 -1
    PINV_4_0 PB_4_1 1
    BUY_0_1 COST 68.8518
    BUY_0_1 CB_0_1 1
    INV_0_1 COST 0.2
    INV_0_1 CB_0_1 -1
    INV_0_1 CB_0_2 1
    X_0_0_1 CB_0_1 -1
    X_0_0_1 PB_0_1 1
    X_0_0_1 CAP_1 1
    X_0_0_1 Q_0_0_1 -0.404888
    X_0_0_1 Q_0_1_1 -0.40389
    X_0_0_1 Q_0_2_1 -0.398451
    X_0_1_1 CB_0_1 -1
    X_0_1_1 PB_1_1 1
    X_0_1_1 CAP_1 1
    X_0_1_1 Q_1_0_1 -0.506822
    X_0_1_1 Q_1_1_1 -0.430402
    X_0_1_1 Q_1_2_1 -0.30967
    X_0_2_1 CB_0_1 -1
    X_0_2_1 PB_2_1 1
    X_0_2_1 CAP_1 1
    X_0_2_1 Q_2_0_1 -0.67691
    X_0_2_1 Q_2_1_1 -0.550404
    X_0_2_1 Q_2_2_1 -0.589032
    X_0_3_1 CB_0_1 -1
    X_0_3_1 PB_3_1 1
    X_0_3_1 CAP_1 1
    X_0_3_1 Q_3_0_1 -0.383658
    X_0_3_1 Q_3_1_1 -0.746645
    X_0_3_1 Q_3_2_1 -0.686976
    X_0_4_1 CB_0_1 -1
    X_0_4_1 PB_4_1 1
    X_0_4_1 CAP_1 1
    X_0_4_1 Q_4_0_1 -0.3544
    X_0_4_1 Q_4_1_1 -0.449713
    X_0_4_1 Q_4_2_1 -0.624668
    BUY_1_1 COST 81.6099
    BUY_1_1 CB_1_1 1
    INV_1_1 COST 0.2
    INV_1_1 CB_1_1 -1
    INV_1_1 CB_1_2 1
    X_1_0_1 CB_1_1 -1
    X_1_0_1 PB_0_1 1
    X_1_0_1 CAP_1 1
    X_1_0_1 Q_0_0_1 -0.162572
    X_1_0_1 Q_0_1_1 0.0667734
    X_1_0_1 Q_0_2_1 0.028565
    X_1_1_1 CB_1_1 -1
    X_1_1_1 PB_1_1 1
    X_1_1_1 CAP_1 1
    X_1_1_1 Q_1_0_1 -0.264506
    X_1_1_1 Q_1_1_1 0.0402616
    X_1_1_1 Q_1_2_1 0.117346
    X_1_2_1 CB_1_1 -1
    X_1_2_1 PB_2_1 1
    X_1_2_1 CAP_1 1
    X_1_2_1 Q_2_0_1 -0.434595
    X_1_2_1 Q_2_1_1 -0.0797411
    X_1_2_1 Q_2_2_1 -0.162016
    X_1_3_1 CB_1_1 -1
    X_1_3_1 PB_3_1 1
    X_1_3_1 CAP_1 1
    X_1_3_1 Q_3_0_1 -0.141342
    X_1_3_1 Q_3_1_1 -0.275981
    X_1_3_1 Q_3_2_1 -0.259959
    X_1_4_1 CB_1_1 -1
    X_1_4_1 PB_4_1 1
    X_1_4_1 CAP_1 1
    X_1_4_1 Q_4_0_1 -0.112085
    X_1_4_1 Q_4_1_1 0.0209505
    X_1_4_1 Q_4_2_1 -0.197651
    BUY_2_1 COST 59.3552
    BUY_2_1 CB_2_1 1
    INV_2_1 COST 0.2
    INV_2_1 CB_2_1 -1
    INV_2_1 CB_2_2 1
    X_2_0_1 CB_2_1 -1
    X_2_0_1 PB_0_1 1
    X_2_0_1 CAP_1 1
    X_2_0_1 Q_0_0_1 0.214125
    X_2_0_1 Q_0_1_1 0.345397
    X_2_0_1 Q_0_2_1 -0.309285
    X_2_1_1 CB_2_1 -1
    X_2_1_1 PB_1_1 1
    X_2_1_1 CAP_1 1
    X_2_1_1 Q_1_0_1 0.112192
    X_2_1_1 Q_1_1_1 0.318885
    X_2_1_1 Q_1_2_1 -0.220504
    X_2_2_1 CB_2_1 -1
    X_2_2_1 PB_2_1 1
    X_2_2_1 CAP_1 1
    X_2_2_1 Q_2_0_1 -0.0578968
    X_2_2_1 Q_2_1_1 0.198883
    X_2_2_1 Q_2_2_1 -0.499866
    X_2_3_1 CB_2_1 -1
    X_2_3_1 PB_3_1 1
    X_2_3_1 CAP_1 1
    X_2_3_1 Q_3_0_1 0.235356
    X_2_3_1 Q_3_1_1 0.00264265
    X_2_3_1 Q_3_2_1 -0.597809
    X_2_4_1 CB_2_1 -1
    X_2_4_1 PB_4_1 1
    X_2_4_1 CAP_1 1
    X_2_4_1 Q_4_0_1 0.264613
    X_2_4_1 Q_4_1_1 0.299574
    X_2_4_1 Q_4_2_1 -0.535501
    BUY_3_1 COST 83.5147
    BUY_3_1 CB_3_1 1
    INV_3_1 COST 0.2
    INV_3_1 CB_3_1 -1
    INV_3_1 CB_3_2 1
    X_3_0_1 CB_3_1 -1
    X_3_0_1 PB_0_1 1
    X_3_0_1 CAP_1 1
    X_3_0_1 Q_0_0_1 -0.377958
    X_3_0_1 Q_0_1_1 0.390087
    X_3_0_1 Q_0_2_1 0.0126772
    X_3_1_1 CB_3_1 -1
    X_3_1_1 PB_1_1 1
    X_3_1_1 CAP_1 1
    X_3_1_1 Q_1_0_1 -0.479891
    X_3_1_1 Q_1_1_1 0.363575
    X_3_1_1 Q_1_2_1 0.101458
    X_3_2_1 CB_3_1 -1
    X_3_2_1 PB_2_1 1
    X_3_2_1 CAP_1 1
    X_3_2_1 Q_2_0_1 -0.64998
    X_3_2_1 Q_2_1_1 0.243572
    X_3_2_1 Q_2_2_1 -0.177904
    X_3_3_1 CB_3_1 -1
    X_3_3_1 PB_3_1 1
    X_3_3_1 CAP_1 1
    X_3_3_1 Q_3_0_1 -0.356728
    X_3_3_1 Q_3_1_1 0.0473323
    X_3_3_1 Q_3_2_1 -0.275847
    X_3_4_1 CB_3_1 -1
    X_3_4_1 PB_4_1 1
    X_3_4_1 CAP_1 1
    X_3_4_1 Q_4_0_1 -0.32747
    X_3_4_1 Q_4_1_1 0.344264
    X_3_4_1 Q_4_2_1 -0.213539
    BUY_4_1 COST 66.5751
    BUY_4_1 CB_4_1 1
    INV_4_1 COST 0.2
    INV_4_1 CB_4_1 -1
    INV_4_1 CB_4_2 1
    X_4_0_1 CB_4_1 -1
    X_4_0_1 PB_0_1 1
    X_4_0_1 CAP_1 1
    X_4_0_1 Q_0_0_1 0.319278
    X_4_0_1 Q_0_1_1 -0.401889
    X_4_0_1 Q_0_2_1 0.0246664
    X_4_1_1 CB_4_1 -1
    X_4_1_1 PB_1_1 1
    X_4_1_1 CAP_1 1
    X_4_1_1 Q_1_0_1 0.217345
    X_4_1_1 Q_1_1_1 -0.428401
    X_4_1_1 Q_1_2_1 0.113447
    X_4_2_1 CB_4_1 -1
    X_4_2_1 PB_2_1 1
    X_4_2_1 CAP_1 1
    X_4_2_1 Q_2_0_1 0.047256
    X_4_2_1 Q_2_1_1 -0.548404
    X_4_2_1 Q_2_2_1 -0.165915
    X_4_3_1 CB_4_1 -1
    X_4_3_1 PB_3_1 1
    X_4_3_1 CAP_1 1
    X_4_3_1 Q_3_0_1 0.340508
    X_4_3_1 Q_3_1_1 -0.744644
    X_4_3_1 Q_3_2_1 -0.263858
    X_4_4_1 CB_4_1 -1
    X_4_4_1 PB_4_1 1
    X_4_4_1 CAP_1 1
    X_4_4_1 Q_4_0_1 0.369766
    X_4_4_1 Q_4_1_1 -0.447712
    X_4_4_1 Q_4_2_1 -0.20155
    BUY_5_1 COST 56.1003
    BUY_5_1 CB_5_1 1
    INV_5_1 COST 0.2
    INV_5_1 CB_5_1 -1
    INV_5_1 CB_5_2 1
    X_5_0_1 CB_5_1 -1
    X_5_0_1 PB_0_1 1
    X_5_0_1 CAP_1 1
    X_5_0_1 Q_0_0_1 0.280575
    X_5_0_1 Q_0_1_1 -0.186566
    X_5_0_1 Q_0_2_1 0.499556
    X_5_1_1 CB_5_1 -1
    X_5_1_1 PB_1_1 1
    X_5_1_1 CAP_1 1
    X_5_1_1 Q_1_0_1 0.178641
    X_5_1_1 Q_1_1_1 -0.213078
    X_5_1_1 Q_1_2_1 0.588337
    X_5_2_1 CB_5_1 -1
    X_5_2_1 PB_2_1 1
    X_5_2_1 CAP_1 1
    X_5_2_1 Q_2_0_1 0.00855294
    X_5_2_1 Q_2_1_1 -0.33308
    X_5_2_1 Q_2_2_1 0.308975
    X_5_3_1 CB_5_1 -1
    X_5_3_1 PB_3_1 1
    X_5_3_1 CAP_1 1
    X_5_3_1 Q_3_0_1 0.301805
    X_5_3_1 Q_3_1_1 -0.52932
    X_5_3_1 Q_3_2_1 0.211031
    X_5_4_1 CB_5_1 -1
    X_5_4_1 PB_4_1 1
    X_5_4_1 CAP_1 1
    X_5_4_1 Q_4_0_1 0.331063
    X_5_4_1 Q_4_1_1 -0.232389
    X_5_4_1 Q_4_2_1 0.273339
    BUY_6_1 COST 73.5015
    BUY_6_1 CB_6_1 1
    INV_6_1 COST 0.2
    INV_6_1 CB_6_1 -1
    INV_6_1 CB_6_2 1
    X_6_0_1 CB_6_1 -1
    X_6_0_1 PB_0_1 1
    X_6_0_1 CAP_1 1
    X_6_0_1 Q_0_0_1 0.451468
    X_6_0_1 Q_0_1_1 -0.374829
    X_6_0_1 Q_0_2_1 -0.374278
    X_6_1_1 CB_6_1 -1
    X_6_1_1 PB_1_1 1
    X_6_1_1 CAP_1 1
    X_6_1_1 Q_1_0_1 0.349535
    X_6_1_1 Q_1_1_1 -0.401341
    X_6_1_1 Q_1_2_1 -0.285497
    X_6_2_1 CB_6_1 -1
    X_6_2_1 PB_2_1 1
    X_6_2_1 CAP_1 1
    X_6_2_1 Q_2_0_1 0.179446
    X_6_2_1 Q_2_1_1 -0.521344
    X_6_2_1 Q_2_2_1 -0.564859
    X_6_3_1 CB_6_1 -1
    X_6_3_1 PB_3_1 1
    X_6_3_1 CAP_1 1
    X_6_3_1 Q_3_0_1 0.472698
    X_6_3_1 Q_3_1_1 -0.717584
    X_6_3_1 Q_3_2_1 -0.662802
    X_6_4_1 CB_6_1 -1
    X_6_4_1 PB_4_1 1
    X_6_4_1 CAP_1 1
    X_6_4_1 Q_4_0_1 0.501956
    X_6_4_1 Q_4_1_1 -0.420652
    X_6_4_1 Q_4_2_1 -0.600494
    BUY_7_1 COST 89.8737
    BUY_7_1 CB_7_1 1
    INV_7_1 COST 0.2
    INV_7_1 CB_7_1 -1
    INV_7_1 CB_7_2 1
    X_7_0_1 CB_7_1 -1
    X_7_0_1 PB_0_1 1
    X_7_0_1 CAP_1 1
    X_7_0_1 Q_0_0_1 0.109454
    X_7_0_1 Q_0_1_1 0.488302
    X_7_0_1 Q_0_2_1 -0.0363074
    X_7_1_1 CB_7_1 -1
    X_7_1_1 PB_1_1 1
    X_7_1_1 CAP_1 1
    X_7_1_1 Q_1_0_1 0.00752029
    X_7_1_1 Q_1_1_1 0.46179
    X_7_1_1 Q_1_2_1 0.0524737
    X_7_2_1 CB_7_1 -1
    X_7_2_1 PB_2_1 1
    X_7_2_1 CAP_1 1
    X_7_2_1 Q_2_0_1 -0.162568
    X_7_2_1 Q_2_1_1 0.341787
    X_7_2_1 Q_2_2_1 -0.226888
    X_7_3_1 CB_7_1 -1
    X_7_3_1 PB_3_1 1
    X_7_3_1 CAP_1 1
    X_7_3_1 Q_3_0_1 0.130684
    X_7_3_1 Q_3_1_1 0.145547
    X_7_3_1 Q_3_2_1 -0.324832
    X_7_4_1 CB_7_1 -1
    X_7_4_1 PB_4_1 1
    X_7_4_1 CAP_1 1
    X_7_4_1 Q_4_0_1 0.159941
    X_7_4_1 Q_4_1_1 0.442479
    X_7_4_1 Q_4_2_1 -0.262524
    BUY_8_1 COST 74.3536
    BUY_8_1 CB_8_1 1
    INV_8_1 COST 0.2
    INV_8_1 CB_8_1 -1
    INV_8_1 CB_8_2 1
    X_8_0_1 CB_8_1 -1
    X_8_0_1 PB_0_1 1
    X_8_0_1 CAP_1 1
    X_8_0_1 Q_0_0_1 -0.199119
    X_8_0_1 Q_0_1_1 -0.0028792
    X_8_0_1 Q_0_2_1 -0.370863
    X_8_1_1 CB_8_1 -1
    X_8_1_1 PB_1_1 1
    X_8_1_1 CAP_1 1
    X_8_1_1 Q_1_0_1 -0.301052
    X_8_1_1 Q_1_1_1 -0.029391
    X_8_1_1 Q_1_2_1 -0.282082
    X_8_2_1 CB_8_1 -1
    X_8_2_1 PB_2_1 1
    X_8_2_1 CAP_1 1
    X_8_2_1 Q_2_0_1 -0.471141
    X_8_2_1 Q_2_1_1 -0.149394
    X_8_2_1 Q_2_2_1 -0.561444
    X_8_3_1 CB_8_1 -1
    X_8_3_1 PB_3_1 1
    X_8_3_1 CAP_1 1
    X_8_3_1 Q_3_0_1 -0.177888
    X_8_3_1 Q_3_1_1 -0.345634
    X_8_3_1 Q_3_2_1 -0.659387
    X_8_4_1 CB_8_1 -1
    X_8_4_1 PB_4_1 1
    X_8_4_1 CAP_1 1
    X_8_4_1 Q_4_0_1 -0.148631
    X_8_4_1 Q_4_1_1 -0.0487021
    X_8_4_1 Q_4_2_1 -0.597079
    BUY_9_1 COST 61.9952
    BUY_9_1 CB_9_1 1
    INV_9_1 COST 0.2
    INV_9_1 CB_9_1 -1
    INV_9_1 CB_9_2 1
    X_9_0_1 CB_9_1 -1
    X_9_0_1 PB_0_1 1
    X_9_0_1 CAP_1 1
    X_9_0_1 Q_0_0_1 -0.194281
    X_9_0_1 Q_0_1_1 0.0121033
    X_9_0_1 Q_0_2_1 0.0725702
    X_9_1_1 CB_9_1 -1
    X_9_1_1 PB_1_1 1
    X_9_1_1 CAP_1 1
    X_9_1_1 Q_1_0_1 -0.296214
    X_9_1_1 Q_1_1_1 -0.0144085
    X_9_1_1 Q_1_2_1 0.161351
    X_9_2_1 CB_9_1 -1
    X_9_2_1 PB_2_1 1
    X_9_2_1 CAP_1 1
    X_9_2_1 Q_2_0_1 -0.466303
    X_9_2_1 Q_2_1_1 -0.134411
    X_9_2_1 Q_2_2_1 -0.118011
    X_9_3_1 CB_9_1 -1
    X_9_3_1 PB_3_1 1
    X_9_3_1 CAP_1 1
    X_9_3_1 Q_3_0_1 -0.173051
    X_9_3_1 Q_3_1_1 -0.330651
    X_9_3_1 Q_3_2_1 -0.215954
    X_9_4_1 CB_9_1 -1
    X_9_4_1 PB_4_1 1
    X_9_4_1 CAP_1 1
    X_9_4_1 Q_4_0_1 -0.143793
    X_9_4_1 Q_4_1_1 -0.0337196
    X_9_4_1 Q_4_2_1 -0.153646
    SELL_0_1 COST -103.701
    SELL_0_1 PB_0_1 -1
    PINV_0_1 COST 0.5
    PINV_0_1 PB_0_1 -1
    PINV_0_1 PB_0_2 1
    SELL_1_1 COST -69.6184
    SELL_1_1 PB_1_1 -1
    PINV_1_1 COST 0.5
    PINV_1_1 PB_1_1 -1
    PINV_1_1 PB_1_2 1
    SELL_2_1 COST -81.7581
    SELL_2_1 PB_2_1 -1
    PINV_2_1 COST 0.5
    PINV_2_1 PB_2_1 -1
    PINV_2_1 PB_2_2 1
    SELL_3_1 COST -120.338
    SELL_3_1 PB_3_1 -1
    PINV_3_1 COST 0.5
    PINV_3_1 PB_3_1 -1
    PINV_3_1 PB_3_2 1
    SELL_4_1 COST -93.1704
    SELL_4_1 PB_4_1 -1
    PINV_4_1 COST 0.5
    PINV_4_1 PB_4_1 -1
    PINV_4_1 PB_4_2 1
    BUY_0_2 COST 68.3608
    BUY_0_2 CB_0_2 1
    INV_0_2 COST 0.2
    INV_0_2 CB_0_2 -1
    INV_0_2 CB_0_3 1
    X_0_0_2 CB_0_2 -1
    X_0_0_2 PB_0_2 1
    X_0_0_2 CAP_2 1
    X_0_0_2 Q_0_0_2 -0.404888
    X_0_0_2 Q_0_1_2 -0.40389
    X_0_0_2 Q_0_2_2 -0.398451
    X_0_1_2 CB_0_2 -1
    X_0_1_2 PB_1_2 1
    X_0_1_2 CAP_2 1
    X_0_1_2 Q_1_0_2 -0.506822
    X_0_1_2 Q_1_1_2 -0.430402
    X_0_1_2 Q_1_2_2 -0.30967
    X_0_2_2 CB_0_2 -1
    X_0_2_2 PB_2_2 1
    X_0_2_2 CAP_2 1
    X_0_2_2 Q_2_0_2 -0.67691
    X_0_2_2 Q_2_1_2 -0.550404
    X_0_2_2 Q_2_2_2 -0.589032
    X_0_3_2 CB_0_2 -1
    X_0_3_2 PB_3_2 1
    X_0_3_2 CAP_2 1
    X_0_3_2 Q_3_0_2 -0.383658
    X_0_3_2 Q_3_1_2 -0.746645
    X_0_3_2 Q_3_2_2 -0.686976
    X_0_4_2 CB_0_2 -1
    X_0_4_2 PB_4_2 1
    X_0_4_2 CAP_2 1
    X_0_4_2 Q_4_0_2 -0.3544
    X_0_4_2 Q_4_1_2 -0.449713
    X_0_4_2 Q_4_2_2 -0.624668
    BUY_1_2 COST 81.405
    BUY_1_2 CB_1_2 1
    INV_1_2 COST 0.2
    INV_1_2 CB_1_2 -1
    INV_1_2 CB_1_3 1
    X_1_0_2 CB_1_2 -1
    X_1_0_2 PB_0_2 1
    X_1_0_2 CAP_2 1
    X_1_0_2 Q_0_0_2 -0.162572
    X_1_0_2 Q_0_1_2 0.0667734
    X_1_0_2 Q_0_2_2 0.028565
    X_1_1_2 CB_1_2 -1
    X_1_1_2 PB_1_2 1
    X_1_1_2 CAP_2 1
    X_1_1_2 Q_1_0_2 -0.264506
    X_1_1_2 Q_1_1_2 0.0402616
    X_1_1_2 Q_1_2_2 0.117346
    X_1_2_2 CB_1_2 -1
    X_1_2_2 PB_2_2 1
    X_1_2_2 CAP_2 1
    X_1_2_2 Q_2_0_2 -0.434595
    X_1_2_2 Q_2_1_2 -0.0797411
    X_1_2_2 Q_2_2_2 -0.162016
    X_1_3_2 CB_1_2 -1
    X_1_3_2 PB_3_2 1
    X_1_3_2 CAP_2 1
    X_1_3_2 Q_3_0_2 -0.141342
    X_1_3_2 Q_3_1_2 -0.275981
    X_1_3_2 Q_3_2_2 -0.259959
    X_1_4_2 CB_1_2 -1
    X_1_4_2 PB_4_2 1
    X_1_4_2 CAP_2 1
    X_1_4_2 Q_4_0_2 -0.112085
    X_1_4_2 Q_4_1_2 0.0209505
    X_1_4_2 Q_4_2_2 -0.197651
    BUY_2_2 COST 61.229
    BUY_2_2 CB_2_2 1
    INV_2_2 COST 0.2
    INV_2_2 CB_2_2 -1
    INV_2_2 CB_2_3 1
    X_2_0_2 CB_2_2 -1
    X_2_0_2 PB_0_2 1
    X_2_0_2 CAP_2 1
    X_2_0_2 Q_0_0_2 0.214125
    X_2_0_2 Q_0_1_2 0.345397
    X_2_0_2 Q_0_2_2 -0.309285
    X_2_1_2 CB_2_2 -1
    X_2_1_2 PB_1_2 1
    X_2_1_2 CAP_2 1
    X_2_1_2 Q_1_0_2 0.112192
    X_2_1_2 Q_1_1_2 0.318885
    X_2_1_2 Q_1_2_2 -0.220504
    X_2_2_2 CB_2_2 -1
    X_2_2_2 PB_2_2 1
    X_2_2_2 CAP_2 1
    X_2_2_2 Q_2_0_2 -0.0578968
    X_2_2_2 Q_2_1_2 0.198883
    X_2_2_2 Q_2_2_2 -0.499866
    X_2_3_2 CB_2_2 -1
    X_2_3_2 PB_3_2 1
    X_2_3_2 CAP_2 1
    X_2_3_2 Q_3_0_2 0.235356
    X_2_3_2 Q_3_1_2 0.00264265
    X_2_3_2 Q_3_2_2 -0.597809
    X_2_4_2 CB_2_2 -1
    X_2_4_2 PB_4_2 1
    X_2_4_2 CAP_2 1
    X_2_4_2 Q_4_0_2 0.264613
    X_2_4_2 Q_4_1_2 0.299574
    X_2_4_2 Q_4_2_2 -0.535501
    BUY_3_2 COST 86.6696
    BUY_3_2 CB_3_2 1
    INV_3_2 COST 0.2
    INV_3_2 CB_3_2 -1
    INV_3_2 CB_3_3 1
    X_3_0_2 CB_3_2 -1
    X_3_0_2 PB_0_2 1
    X_3_0_2 CAP_2 1
    X_3_0_2 Q_0_0_2 -0.377958
    X_3_0_2 Q_0_1_2 0.390087
    X_3_0_2 Q_0_2_2 0.0126772
    X_3_1_2 CB_3_2 -1
    X_3_1_2 PB_1_2 1
    X_3_1_2 CAP_2 1
    X_3_1_2 Q_1_0_2 -0.479891
    X_3_1_2 Q_1_1_2 0.363575
    X_3_1_2 Q_1_2_2 0.101458
    X_3_2_2 CB_3_2 -1
    X_3_2_2 PB_2_2 1
    X_3_2_2 CAP_2 1
    X_3_2_2 Q_2_0_2 -0.64998
    X_3_2_2 Q_2_1_2 0.243572
    X_3_2_2 Q_2_2_2 -0.177904
    X_3_3_2 CB_3_2 -1
    X_3_3_2 PB_3_2 1
    X_3_3_2 CAP_2 1
    X_3_3_2 Q_3_0_2 -0.356728
    X_3_3_2 Q_3_1_2 0.0473323
    X_3_3_2 Q_3_2_2 -0.275847
    X_3_4_2 CB_3_2 -1
    X_3_4_2 PB_4_2 1
    X_3_4_2 CAP_2 1
    X_3_4_2 Q_4_0_2 -0.32747
    X_3_4_2 Q_4_1_2 0.344264
    X_3_4_2 Q_4_2_2 -0.213539
    BUY_4_2 COST 68.3172
    BUY_4_2 CB_4_2 1
    INV_4_2 COST 0.2
    INV_4_2 CB_4_2 -1
    INV_4_2 CB_4_3 1
    X_4_0_2 CB_4_2 -1
    X_4_0_2 PB_0_2 1
    X_4_0_2 CAP_2 1
    X_4_0_2 Q_0_0_2 0.319278
    X_4_0_2 Q_0_1_2 -0.401889
    X_4_0_2 Q_0_2_2 0.0246664
    X_4_1_2 CB_4_2 -1
    X_4_1_2 PB_1_2 1
    X_4_1_2 CAP_2 1
    X_4_1_2 Q_1_0_2 0.217345
    X_4_1_2 Q_1_1_2 -0.428401
    X_4_1_2 Q_1_2_2 0.113447
    X_4_2_2 CB_4_2 -1
    X_4_2_2 PB_2_2 1
    X_4_2_2 CAP_2 1
    X_4_2_2 Q_2_0_2 0.047256
    X_4_2_2 Q_2_1_2 -0.548404
    X_4_2_2 Q_2_2_2 -0.165915
    X_4_3_2 CB_4_2 -1
    X_4_3_2 PB_3_2 1
    X_4_3_2 CAP_2 1
    X_4_3_2 Q_3_0_2 0.340508
    X_4_3_2 Q_3_1_2 -0.744644
    X_4_3_2 Q_3_2_2 -0.263858
    X_4_4_2 CB_4_2 -1
    X_4_4_2 PB_4_2 1
    X_4_4_2 CAP_2 1
    X_4_4_2 Q_4_0_2 0.369766
    X_4_4_2 Q_4_1_2 -0.447712
    X_4_4_2 Q_4_2_2 -0.20155
    BUY_5_2 COST 57.426
    BUY_5_2 CB_5_2 1
    INV_5_2 COST 0.2
    INV_5_2 CB_5_2 -1
    INV_5_2 CB_5_3 1
    X_5_0_2 CB_5_2 -1
    X_5_0_2 PB_0_2 1
    X_5_0_2 CAP_2 1
    X_5_0_2 Q_0_0_2 0.280575
    X_5_0_2 Q_0_1_2 -0.186566
    X_5_0_2 Q_0_2_2 0.499556
    X_5_1_2 CB_5_2 -1
    X_5_1_2 PB_1_2 1
    X_5_1_2 CAP_2 1
    X_5_1_2 Q_1_0_2 0.178641
    X_5_1_2 Q_1_1_2 -0.213078
    X_5_1_2 Q_1_2_2 0.588337
    X_5_2_2 CB_5_2 -1
    X_5_2_2 PB_2_2 1
    X_5_2_2 CAP_2 1
    X_5_2_2 Q_2_0_2 0.00855294
    X_5_2_2 Q_2_1_2 -0.33308
    X_5_2_2 Q_2_2_2 0.308975
    X_5_3_2 CB_5_2 -1
    X_5_3_2 PB_3_2 1
    X_5_3_2 CAP_2 1
    X_5_3_2 Q_3_0_2 0.301805
    X_5_3_2 Q_3_1_2 -0.52932
    X_5_3_2 Q_3_2_2 0.211031
    X_5_4_2 CB_5_2 -1
    X_5_4_2 PB_4_2 1
    X_5_4_2 CAP_2 1
    X_5_4_2 Q_4_0_2 0.331063
    X_5_4_2 Q_4_1_2 -0.232389
    X_5_4_2 Q_4_2_2 0.273339
    BUY_6_2 COST 65.5021
    BUY_6_2 CB_6_2 1
    INV_6_2 COST 0.2
    INV_6_2 CB_6_2 -1
    INV_6_2 CB_6_3 1
    X_6_0_2 CB_6_2 -1
    X_6_0_2 PB_0_2 1
    X_6_0_2 CAP_2 1
    X_6_0_2 Q_0_0_2 0.451468
    X_6_0_2 Q_0_1_2 -0.374829
    X_6_0_2 Q_0_2_2 -0.374278
    X_6_1_2 CB_6_2 -1
    X_6_1_2 PB_1_2 1
    X_6_1_2 CAP_2 1
    X_6_1_2 Q_1_0_2 0.349535
    X_6_1_2 Q_1_1_2 -0.401341
    X_6_1_2 Q_1_2_2 -0.285497
    X_6_2_2 CB_6_2 -1
    X_6_2_2 PB_2_2 1
    X_6_2_2 CAP_2 1
    X_6_2_2 Q_2_0_2 0.179446
    X_6_2_2 Q_2_1_2 -0.521344
    X_6_2_2 Q_2_2_2 -0.564859
    X_6_3_2 CB_6_2 -1
    X_6_3_2 PB_3_2 1
    X_6_3_2 CAP_2 1
    X_6_3_2 Q_3_0_2 0.472698
    X_6_3_2 Q_3_1_2 -0.717584
    X_6_3_2 Q_3_2_2 -0.662802
    X_6_4_2 CB_6_2 -1
    X_6_4_2 PB_4_2 1
    X_6_4_2 CAP_2 1
    X_6_4_2 Q_4_0_2 0.501956
    X_6_4_2 Q_4_1_2 -0.420652
    X_6_4_2 Q_4_2_2 -0.600494
    BUY_7_2 COST 84.4032
    BUY_7_2 CB_7_2 1
    INV_7_2 COST 0.2
    INV_7_2 CB_7_2 -1
    INV_7_2 CB_7_3 1
    X_7_0_2 CB_7_2 -1
    X_7_0_2 PB_0_2 1
    X_7_0_2 CAP_2 1
    X_7_0_2 Q_0_0_2 0.109454
    X_7_0_2 Q_0_1_2 0.488302
    X_7_0_2 Q_0_2_2 -0.0363074
    X_7_1_2 CB_7_2 -1
    X_7_1_2 PB_1_2 1
    X_7_1_2 CAP_2 1
    X_7_1_2 Q_1_0_2 0.00752029
    X_7_1_2 Q_1_1_2 0.46179
    X_7_1_2 Q_1_2_2 0.0524737
    X_7_2_2 CB_7_2 -1
    X_7_2_2 PB_2_2 1
    X_7_2_2 CAP_2 1
    X_7_2_2 Q_2_0_2 -0.162568
    X_7_2_2 Q_2_1_2 0.341787
    X_7_2_2 Q_2_2_2 -0.226888
    X_7_3_2 CB_7_2 -1
    X_7_3_2 PB_3_2 1
    X_7_3_2 CAP_2 1
    X_7_3_2 Q_3_0_2 0.130684
    X_7_3_2 Q_3_1_2 0.145547
    X_7_3_2 Q_3_2_2 -0.324832
    X_7_4_2 CB_7_2 -1
    X_7_4_2 PB_4_2 1
    X_7_4_2 CAP_2 1
    X_7_4_2 Q_4_0_2 0.159941
    X_7_4_2 Q_4_1_2 0.442479
    X_7_4_2 Q_4_2_2 -0.262524
    BUY_8_2 COST 80.5797
    BUY_8_2 CB_8_2 1
    INV_8_2 COST 0.2
    INV_8_2 CB_8_2 -1
    INV_8_2 CB_8_3 1
    X_8_0_2 CB_8_2 -1
    X_8_0_2 PB_0_2 1
    X_8_0_2 CAP_2 1
    X_8_0_2 Q_0_0_2 -0.199119
    X_8_0_2 Q_0_1_2 -0.0028792
    X_8_0_2 Q_0_2_2 -0.370863
    X_8_1_2 CB_8_2 -1
    X_8_1_2 PB_1_2 1
    X_8_1_2 CAP_2 1
    X_8_1_2 Q_1_0_2 -0.301052
    X_8_1_2 Q_1_1_2 -0.029391
    X_8_1_2 Q_1_2_2 -0.282082
    X_8_2_2 CB_8_2 -1
    X_8_2_2 PB_2_2 1
    X_8_2_2 CAP_2 1
    X_8_2_2 Q_2_0_2 -0.471141
    X_8_2_2 Q_2_1_2 -0.149394
    X_8_2_2 Q_2_2_2 -0.561444
    X_8_3_2 CB_8_2 -1
    X_8_3_2 PB_3_2 1
    X_8_3_2 CAP_2 1
    X_8_3_2 Q_3_0_2 -0.177888
    X_8_3_2 Q_3_1_2 -0.345634
    X_8_3_2 Q_3_2_2 -0.659387
    X_8_4_2 CB_8_2 -1
    X_8_4_2 PB_4_2 1
    X_8_4_2 CAP_2 1
    X_8_4_2 Q_4_0_2 -0.148631
    X_8_4_2 Q_4_1_2 -0.0487021
    X_8_4_2 Q_4_2_2 -0.597079
    BUY_9_2 COST 66.9734
    BUY_9_2 CB_9_2 1
    INV_9_2 COST 0.2
    INV_9_2 CB_9_2 -1
    INV_9_2 CB_9_3 1
    X_9_0_2 CB_9_2 -1
    X_9_0_2 PB_0_2 1
    X_9_0_2 CAP_2 1
    X_9_0_2 Q_0_0_2 -0.194281
    X_9_0_2 Q_0_1_2 0.0121033
    X_9_0_2 Q_0_2_2 0.0725702
    X_9_1_2 CB_9_2 -1
    X_9_1_2 PB_1_2 1
    X_9_1_2 CAP_2 1
    X_9_1_2 Q_1_0_2 -0.296214
    X_9_1_2 Q_1_1_2 -0.0144085
    X_9_1_2 Q_1_2_2 0.161351
    X_9_2_2 CB_9_2 -1
    X_9_2_2 PB_2_2 1
    X_9_2_2 CAP_2 1
    X_9_2_2 Q_2_0_2 -0.466303
    X_9_2_2 Q_2_1_2 -0.134411
    X_9_2_2 Q_2_2_2 -0.118011
    X_9_3_2 CB_9_2 -1
    X_9_3_2 PB_3_2 1
    X_9_3_2 CAP_2 1
    X_9_3_2 Q_3_0_2 -0.173051
    X_9_3_2 Q_3_1_2 -0.330651
    X_9_3_2 Q_3_2_2 -0.215954
    X_9_4_2 CB_9_2 -1
    X_9_4_2 PB_4_2 1
    X_9_4_2 CAP_2 1
    X_9_4_2 Q_4_0_2 -0.143793
    X_9_4_2 Q_4_1_2 -0.0337196
    X_9_4_2 Q_4_2_2 -0.153646
    SELL_0_2 COST -110.269
    SELL_0_2 PB_0_2 -1
    PINV_0_2 COST 0.5
    PINV_0_2 PB_0_2 -1
    PINV_0_2 PB_0_3 1
    SELL_1_2 COST -70.6761
    SELL_1_2 PB_1_2 -1
    PINV_1_2 COST 0.5
    PINV_1_2 PB_1_2 -1
    PINV_1_2 PB_1_3 1
    SELL_2_2 COST -82.9607
    SELL_2_2 PB_2_2 -1
    PINV_2_2 COST 0.5
    PINV_2_2 PB_2_2 -1
    PINV_2_2 PB_2_3 1
    SELL_3_2 COST -120.718
    SELL_3_2 PB_3_2 -1
    PINV_3_2 COST 0.5
    PINV_3_2 PB_3_2 -1
    PINV_3_2 PB_3_3 1
    SELL_4_2 COST -92.5097
    SELL_4_2 PB_4_2 -1
    PINV_4_2 COST 0.5
    PINV_4_2 PB_4_2 -1
    PINV_4_2 PB_4_3 1
    BUY_0_3 COST 81.2827
    BUY_0_3 CB_0_3 1
    INV_0_3 COST 0.2
    INV_0_3 CB_0_3 -1
    INV_0_3 CB_0_4 1
    X_0_0_3 CB_0_3 -1
    X_0_0_3 PB_0_3 1
    X_0_0_3 CAP_3 1
    X_0_0_3 Q_0_0_3 -0.404888
    X_0_0_3 Q_0_1_3 -0.40389
    X_0_0_3 Q_0_2_3 -0.398451
    X_0_1_3 CB_0_3 -1
    X_0_1_3 PB_1_3 1
    X_0_1_3 CAP_3 1
    X_0_1_3 Q_1_0_3 -0.506822
    X_0_1_3 Q_1_1_3 -0.430402
    X_0_1_3 Q_1_2_3 -0.30967
    X_0_2_3 CB_0_3 -1
    X_0_2_3 PB_2_3 1
    X_0_2_3 CAP_3 1
    X_0_2_3 Q_2_0_3 -0.67691
    X_0_2_3 Q_2_1_3 -0.550404
    X_0_2_3 Q_2_2_3 -0.589032
    X_0_3_3 CB_0_3 -1
    X_0_3_3 PB_3_3 1
    X_0_3_3 CAP_3 1
    X_0_3_3 Q_3_0_3 -0.383658
    X_0_3_3 Q_3_1_3 -0.746645
    X_0_3_3 Q_3_2_3 -0.686976
    X_0_4_3 CB_0_3 -1
    X_0_4_3 PB_4_3 1
    X_0_4_3 CAP_3 1
    X_0_4_3 Q_4_0_3 -0.3544
    X_0_4_3 Q_4_1_3 -0.449713
    X_0_4_3 Q_4_2_3 -0.624668
    BUY_1_3 COST 94.8479
    BUY_1_3 CB_1_3 1
    INV_1_3 COST 0.2
    INV_1_3 CB_1_3 -1
    INV_1_3 CB_1_4 1
    X_1_0_3 CB_1_3 -1
    X_1_0_3 PB_0_3 1
    X_1_0_3 CAP_3 1
    X_1_0_3 Q_0_0_3 -0.162572
    X_1_0_3 Q_0_1_3 0.0667734
    X_1_0_3 Q_0_2_3 0.028565
    X_1_1_3 CB_1_3 -1
    X_1_1_3 PB_1_3 1
    X_1_1_3 CAP_3 1
    X_1_1_3 Q_1_0_3 -0.264506
    X_1_1_3 Q_1_1_3 0.0402616
    X_1_1_3 Q_1_2_3 0.117346
    X_1_2_3 CB_1_3 -1
    X_1_2_3 PB_2_3 1
    X_1_2_3 CAP_3 1
    X_1_2_3 Q_2_0_3 -0.434595
    X_1_2_3 Q_2_1_3 -0.0797411
    X_1_2_3 Q_2_2_3 -0.162016
    X_1_3_3 CB_1_3 -1
    X_1_3_3 PB_3_3 1
    X_1_3_3 CAP_3 1
    X_1_3_3 Q_3_0_3 -0.141342
    X_1_3_3 Q_3_1_3 -0.275981
    X_1_3_3 Q_3_2_3 -0.259959
    X_1_4_3 CB_1_3 -1
    X_1_4_3 PB_4_3 1
    X_1_4_3 CAP_3 1
    X_1_4_3 Q_4_0_3 -0.112085
    X_1_4_3 Q_4_1_3 0.0209505
    X_1_4_3 Q_4_2_3 -0.197651
    BUY_2_3 COST 65.6
    BUY_2_3 CB_2_3 1
    INV_2_3 COST 0.2
    INV_2_3 CB_2_3 -1
    INV_2_3 CB_2_4 1
    X_2_0_3 CB_2_3 -1
    X_2_0_3 PB_0_3 1
    X_2_0_3 CAP_3 1
    X_2_0_3 Q_0_0_3 0.214125
    X_2_0_3 Q_0_1_3 0.345397
    X_2_0_3 Q_0_2_3 -0.309285
    X_2_1_3 CB_2_3 -1
    X_2_1_3 PB_1_3 1
    X_2_1_3 CAP_3 1
    X_2_1_3 Q_1_0_3 0.112192
    X_2_1_3 Q_1_1_3 0.318885
    X_2_1_3 Q_1_2_3 -0.220504
    X_2_2_3 CB_2_3 -1
    X_2_2_3 PB_2_3 1
    X_2_2_3 CAP_3 1
    X_2_2_3 Q_2_0_3 -0.0578968
    X_2_2_3 Q_2_1_3 0.198883
    X_2_2_3 Q_2_2_3 -0.499866
    X_2_3_3 CB_2_3 -1
    X_2_3_3 PB_3_3 1
    X_2_3_3 CAP_3 1
    X_2_3_3 Q_3_0_3 0.235356
    X_2_3_3 Q_3_1_3 0.00264265
    X_2_3_3 Q_3_2_3 -0.597809
    X_2_4_3 CB_2_3 -1
    X_2_4_3 PB_4_3 1
    X_2_4_3 CAP_3 1
    X_2_4_3 Q_4_0_3 0.264613
    X_2_4_3 Q_4_1_3 0.299574
    X_2_4_3 Q_4_2_3 -0.535501
    BUY_3_3 COST 81.6464
    BUY_3_3 CB_3_3 1
    INV_3_3 COST 0.2
    INV_3_3 CB_3_3 -1
    INV_3_3 CB_3_4 1
    X_3_0_3 CB_3_3 -1
    X_3_0_3 PB_0_3 1
    X_3_0_3 CAP_3 1
    X_3_0_3 Q_0_0_3 -0.377958
    X_3_0_3 Q_0_1_3 0.390087
    X_3_0_3 Q_0_2_3 0.0126772
    X_3_1_3 CB_3_3 -1
    X_3_1_3 PB_1_3 1
    X_3_1_3 CAP_3 1
    X_3_1_3 Q_1_0_3 -0.479891
    X_3_1_3 Q_1_1_3 0.363575
    X_3_1_3 Q_1_2_3 0.101458
    X_3_2_3 CB_3_3 -1
    X_3_2_3 PB_2_3 1
    X_3_2_3 CAP_3 1
    X_3_2_3 Q_2_0_3 -0.64998
    X_3_2_3 Q_2_1_3 0.243572
    X_3_2_3 Q_2_2_3 -0.177904
    X_3_3_3 CB_3_3 -1
    X_3_3_3 PB_3_3 1
    X_3_3_3 CAP_3 1
    X_3_3_3 Q_3_0_3 -0.356728
    X_3_3_3 Q_3_1_3 0.0473323
    X_3_3_3 Q_3_2_3 -0.275847
    X_3_4_3 CB_3_3 -1
    X_3_4_3 PB_4_3 1
    X_3_4_3 CAP_3 1
    X_3_4_3 Q_4_0_3 -0.32747
    X_3_4_3 Q_4_1_3 0.344264
    X_3_4_3 Q_4_2_3 -0.213539
    BUY_4_3 COST 69.1891
    BUY_4_3 CB_4_3 1
    INV_4_3 COST 0.2
    INV_4_3 CB_4_3 -1
    INV_4_3 CB_4_4 1
    X_4_0_3 CB_4_3 -1
    X_4_0_3 PB_0_3 1
    X_4_0_3 CAP_3 1
    X_4_0_3 Q_0_0_3 0.319278
    X_4_0_3 Q_0_1_3 -0.401889
    X_4_0_3 Q_0_2_3 0.0246664
    X_4_1_3 CB_4_3 -1
    X_4_1_3 PB_1_3 1
    X_4_1_3 CAP_3 1
    X_4_1_3 Q_1_0_3 0.217345
    X_4_1_3 Q_1_1_3 -0.428401
    X_4_1_3 Q_1_2_3 0.113447
    X_4_2_3 CB_4_3 -1
    X_4_2_3 PB_2_3 1
    X_4_2_3 CAP_3 1
    X_4_2_3 Q_2_0_3 0.047256
    X_4_2_3 Q_2_1_3 -0.548404
    X_4_2_3 Q_2_2_3 -0.165915
    X_4_3_3 CB_4_3 -1
    X_4_3_3 PB_3_3 1
    X_4_3_3 CAP_3 1
    X_4_3_3 Q_3_0_3 0.340508
    X_4_3_3 Q_3_1_3 -0.744644
    X_4_3_3 Q_3_2_3 -0.263858
    X_4_4_3 CB_4_3 -1
    X_4_4_3 PB_4_3 1
    X_4_4_3 CAP_3 1
    X_4_4_3 Q_4_0_3 0.369766
    X_4_4_3 Q_4_1_3 -0.447712
    X_4_4_3 Q_4_2_3 -0.20155
    BUY_5_3 COST 51.7934
    BUY_5_3 CB_5_3 1
    INV_5_3 COST 0.2
    INV_5_3 CB_5_3 -1
    INV_5_3 CB_5_4 1
    X_5_0_3 CB_5_3 -1
    X_5_0_3 PB_0_3 1
    X_5_0_3 CAP_3 1
    X_5_0_3 Q_0_0_3 0.280575
    X_5_0_3 Q_0_1_3 -0.186566
    X_5_0_3 Q_0_2_3 0.499556
    X_5_1_3 CB_5_3 -1
    X_5_1_3 PB_1_3 1
    X_5_1_3 CAP_3 1
    X_5_1_3 Q_1_0_3 0.178641
    X_5_1_3 Q_1_1_3 -0.213078
    X_5_1_3 Q_1_2_3 0.588337
    X_5_2_3 CB_5_3 -1
    X_5_2_3 PB_2_3 1
    X_5_2_3 CAP_3 1
    X_5_2_3 Q_2_0_3 0.00855294
    X_5_2_3 Q_2_1_3 -0.33308
    X_5_2_3 Q_2_2_3 0.308975
    X_5_3_3 CB_5_3 -1
    X_5_3_3 PB_3_3 1
    X_5_3_3 CAP_3 1
    X_5_3_3 Q_3_0_3 0.301805
    X_5_3_3 Q_3_1_3 -0.52932
    X_5_3_3 Q_3_2_3 0.211031
    X_5_4_3 CB_5_3 -1
    X_5_4_3 PB_4_3 1
    X_5_4_3 CAP_3 1
    X_5_4_3 Q_4_0_3 0.331063
    X_5_4_3 Q_4_1_3 -0.232389
    X_5_4_3 Q_4_2_3 0.273339
    BUY_6_3 COST 66.5494
    BUY_6_3 CB_6_3 1
    INV_6_3 COST 0.2
    INV_6_3 CB_6_3 -1
    INV_6_3 CB_6_4 1
    X_6_0_3 CB_6_3 -1
    X_6_0_3 PB_0_3 1
    X_6_0_3 CAP_3 1
    X_6_0_3 Q_0_0_3 0.451468
    X_6_0_3 Q_0_1_3 -0.374829
    X_6_0_3 Q_0_2_3 -0.374278
    X_6_1_3 CB_6_3 -1
    X_6_1_3 PB_1_3 1
    X_6_1_3 CAP_3 1
    X_6_1_3 Q_1_0_3 0.349535
    X_6_1_3 Q_1_1_3 -0.401341
    X_6_1_3 Q_1_2_3 -0.285497
    X_6_2_3 CB_6_3 -1
    X_6_2_3 PB_2_3 1
    X_6_2_3 CAP_3 1
    X_6_2_3 Q_2_0_3 0.179446
    X_6_2_3 Q_2_1_3 -0.521344
    X_6_2_3 Q_2_2_3 -0.564859
    X_6_3_3 CB_6_3 -1
    X_6_3_3 PB_3_3 1
    X_6_3_3 CAP_3 1
    X_6_3_3 Q_3_0_3 0.472698
    X_6_3_3 Q_3_1_3 -0.717584
    X_6_3_3 Q_3_2_3 -0.662802
    X_6_4_3 CB_6_3 -1
    X_6_4_3 PB_4_3 1
    X_6_4_3 CAP_3 1
    X_6_4_3 Q_4_0_3 0.501956
    X_6_4_3 Q_4_1_3 -0.420652
    X_6_4_3 Q_4_2_3 -0.600494
    BUY_7_3 COST 90.3764
    BUY_7_3 CB_7_3 1
    INV_7_3 COST 0.2
    INV_7_3 CB_7_3 -1
    INV_7_3 CB_7_4 1
    X_7_0_3 CB_7_3 -1
    X_7_0_3 PB_0_3 1
    X_7_0_3 CAP_3 1
    X_7_0_3 Q_0_0_3 0.109454
    X_7_0_3 Q_0_1_3 0.488302
    X_7_0_3 Q_0_2_3 -0.0363074
    X_7_1_3 CB_7_3 -1
    X_7_1_3 PB_1_3 1
    X_7_1_3 CAP_3 1
    X_7_1_3 Q_1_0_3 0.00752029
    X_7_1_3 Q_1_1_3 0.46179
    X_7_1_3 Q_1_2_3 0.0524737
    X_7_2_3 CB_7_3 -1
    X_7_2_3 PB_2_3 1
    X_7_2_3 CAP_3 1
    X_7_2_3 Q_2_0_3 -0.162568
    X_7_2_3 Q_2_1_3 0.341787
    X_7_2_3 Q_2_2_3 -0.226888
    X_7_3_3 CB_7_3 -1
    X_7_3_3 PB_3_3 1
    X_7_3_3 CAP_3 1
    X_7_3_3 Q_3_0_3 0.130684
    X_7_3_3 Q_3_1_3 0.145547
    X_7_3_3 Q_3_2_3 -0.324832
    X_7_4_3 CB_7_3 -1
    X_7_4_3 PB_4_3 1
    X_7_4_3 CAP_3 1
    X_7_4_3 Q_4_0_3 0.159941
    X_7_4_3 Q_4_1_3 0.442479
    X_7_4_3 Q_4_2_3 -0.262524
    BUY_8_3 COST 77.3853
    BUY_8_3 CB_8_3 1
    INV_8_3 COST 0.2
    INV_8_3 CB_8_3 -1
    INV_8_3 CB_8_4 1
    X_8_0_3 CB_8_3 -1
    X_8_0_3 PB_0_3 1
    X_8_0_3 CAP_3 1
    X_8_0_3 Q_0_0_3 -0.199119
    X_8_0_3 Q_0_1_3 -0.0028792
    X_8_0_3 Q_0_2_3 -0.370863
    X_8_1_3 CB_8_3 -1
    X_8_1_3 PB_1_3 1
    X_8_1_3 CAP_3 1
    X_8_1_3 Q_1_0_3 -0.301052
    X_8_1_3 Q_1_1_3 -0.029391
    X_8_1_3 Q_1_2_3 -0.282082
    X_8_2_3 CB_8_3 -1
    X_8_2_3 PB_2_3 1
    X_8_2_3 CAP_3 1
    X_8_2_3 Q_2_0_3 -0.471141
    X_8_2_3 Q_2_1_3 -0.149394
    X_8_2_3 Q_2_2_3 -0.561444
    X_8_3_3 CB_8_3 -1
    X_8_3_3 PB_3_3 1
    X_8_3_3 CAP_3 1
    X_8_3_3 Q_3_0_3 -0.177888
    X_8_3_3 Q_3_1_3 -0.345634
    X_8_3_3 Q_3_2_3 -0.659387
    X_8_4_3 CB_8_3 -1
    X_8_4_3 PB_4_3 1
    X_8_4_3 CAP_3 1
    X_8_4_3 Q_4_0_3 -0.148631
    X_8_4_3 Q_4_1_3 -0.0487021
    X_8_4_3 Q_4_2_3 -0.597079
    BUY_9_3 COST 68.9542
    BUY_9_3 CB_9_3 1
    INV_9_3 COST 0.2
    INV_9_3 CB_9_3 -1
    INV_9_3 CB_9_4 1
    X_9_0_3 CB_9_3 -1
    X_9_0_3 PB_0_3 1
    X_9_0_3 CAP_3 1
    X_9_0_3 Q_0_0_3 -0.194281
    X_9_0_3 Q_0_1_3 0.0121033
    X_9_0_3 Q_0_2_3 0.0725702
    X_9_1_3 CB_9_3 -1
    X_9_1_3 PB_1_3 1
    X_9_1_3 CAP_3 1
    X_9_1_3 Q_1_0_3 -0.296214
    X_9_1_3 Q_1_1_3 -0.0144085
    X_9_1_3 Q_1_2_3 0.161351
    X_9_2_3 CB_9_3 -1
    X_9_2_3 PB_2_3 1
    X_9_2_3 CAP_3 1
    X_9_2_3 Q_2_0_3 -0.466303
    X_9_2_3 Q_2_1_3 -0.134411
    X_9_2_3 Q_2_2_3 -0.118011
    X_9_3_3 CB_9_3 -1
    X_9_3_3 PB_3_3 1
    X_9_3_3 CAP_3 1
    X_9_3_3 Q_3_0_3 -0.173051
    X_9_3_3 Q_3_1_3 -0.330651
    X_9_3_3 Q_3_2_3 -0.215954
    X_9_4_3 CB_9_3 -1
    X_9_4_3 PB_4_3 1
    X_9_4_3 CAP_3 1
    X_9_4_3 Q_4_0_3 -0.143793
    X_9_4_3 Q_4_1_3 -0.0337196
    X_9_4_3 Q_4_2_3 -0.153646
    SELL_0_3 COST -107.178
    SELL_0_3 PB_0_3 -1
    PINV_0_3 COST 0.5
    PINV_0_3 PB_0_3 -1
    PINV_0_3 PB_0_4 1
    SELL_1_3 COST -75.1864
    SELL_1_3 PB_1_3 -1
    PINV_1_3 COST 0.5
    PINV_1_3 PB_1_3 -1
    PINV_1_3 PB_1_4 1
    SELL_2_3 COST -87.7981
    SELL_2_3 PB_2_3 -1
    PINV_2_3 COST 0.5
    PINV_2_3 PB_2_3 -1
    PINV_2_3 PB_2_4 1
    SELL_3_3 COST -117.662
    SELL_3_3 PB_3_3 -1
    PINV_3_3 COST 0.5
    PINV_3_3 PB_3_3 -1
    PINV_3_3 PB_3_4 1
    SELL_4_3 COST -92.3417
    SELL_4_3 PB_4_3 -1
    PINV_4_3 COST 0.5
    PINV_4_3 PB_4_3 -1
    PINV_4_3 PB_4_4 1
    BUY_0_4 COST 69.2833
    BUY_0_4 CB_0_4 1
    INV_0_4 COST 0.2
    INV_0_4 CB_0_4 -1
    INV_0_4 CB_0_5 1
    X_0_0_4 CB_0_4 -1
    X_0_0_4 PB_0_4 1
    X_0_0_4 CAP_4 1
    X_0_0_4 Q_0_0_4 -0.404888
    X_0_0_4 Q_0_1_4 -0.40389
    X_0_0_4 Q_0_2_4 -0.398451
    X_0_1_4 CB_0_4 -1
    X_0_1_4 PB_1_4 1
    X_0_1_4 CAP_4 1
    X_0_1_4 Q_1_0_4 -0.506822
    X_0_1_4 Q_1_1_4 -0.430402
    X_0_1_4 Q_1_2_4 -0.30967
    X_0_2_4 CB_0_4 -1
    X_0_2_4 PB_2_4 1
    X_0_2_4 CAP_4 1
    X_0_2_4 Q_2_0_4 -0.67691
    X_0_2_4 Q_2_1_4 -0.550404
    X_0_2_4 Q_2_2_4 -0.589032
    X_0_3_4 CB_0_4 -1
    X_0_3_4 PB_3_4 1
    X_0_3_4 CAP_4 1
    X_0_3_4 Q_3_0_4 -0.383658
    X_0_3_4 Q_3_1_4 -0.746645
    X_0_3_4 Q_3_2_4 -0.686976
    X_0_4_4 CB_0_4 -1
    X_0_4_4 PB_4_4 1
    X_0_4_4 CAP_4 1
    X_0_4_4 Q_4_0_4 -0.3544
    X_0_4_4 Q_4_1_4 -0.449713
    X_0_4_4 Q_4_2_4 -0.624668
    BUY_1_4 COST 81.8379
    BUY_1_4 CB_1_4 1
    INV_1_4 COST 0.2
    INV_1_4 CB_1_4 -1
    INV_1_4 CB_1_5 1
    X_1_0_4 CB_1_4 -1
    X_1_0_4 PB_0_4 1
    X_1_0_4 CAP_4 1
    X_1_0_4 Q_0_0_4 -0.162572
    X_1_0_4 Q_0_1_4 0.0667734
    X_1_0_4 Q_0_2_4 0.028565
    X_1_1_4 CB_1_4 -1
    X_1_1_4 PB_1_4 1
    X_1_1_4 CAP_4 1
    X_1_1_4 Q_1_0_4 -0.264506
    X_1_1_4 Q_1_1_4 0.0402616
    X_1_1_4 Q_1_2_4 0.117346
    X_1_2_4 CB_1_4 -1
    X_1_2_4 PB_2_4 1
    X_1_2_4 CAP_4 1
    X_1_2_4 Q_2_0_4 -0.434595
    X_1_2_4 Q_2_1_4 -0.0797411
    X_1_2_4 Q_2_2_4 -0.162016
    X_1_3_4 CB_1_4 -1
    X_1_3_4 PB_3_4 1
    X_1_3_4 CAP_4 1
    X_1_3_4 Q_3_0_4 -0.141342
    X_1_3_4 Q_3_1_4 -0.275981
    X_1_3_4 Q_3_2_4 -0.259959
    X_1_4_4 CB_1_4 -1
    X_1_4_4 PB_4_4 1
    X_1_4_4 CAP_4 1
    X_1_4_4 Q_4_0_4 -0.112085
    X_1_4_4 Q_4_1_4 0.0209505
    X_1_4_4 Q_4_2_4 -0.197651
    BUY_2_4 COST 65.2744
    BUY_2_4 CB_2_4 1
    INV_2_4 COST 0.2
    INV_2_4 CB_2_4 -1
    INV_2_4 CB_2_5 1
    X_2_0_4 CB_2_4 -1
    X_2_0_4 PB_0_4 1
    X_2_0_4 CAP_4 1
    X_2_0_4 Q_0_0_4 0.214125
    X_2_0_4 Q_0_1_4 0.345397
    X_2_0_4 Q_0_2_4 -0.309285
    X_2_1_4 CB_2_4 -1
    X_2_1_4 PB_1_4 1
    X_2_1_4 CAP_4 1
    X_2_1_4 Q_1_0_4 0.112192
    X_2_1_4 Q_1_1_4 0.318885
    X_2_1_4 Q_1_2_4 -0.220504
    X_2_2_4 CB_2_4 -1
    X_2_2_4 PB_2_4 1
    X_2_2_4 CAP_4 1
    X_2_2_4 Q_2_0_4 -0.0578968
    X_2_2_4 Q_2_1_4 0.198883
    X_2_2_4 Q_2_2_4 -0.499866
    X_2_3_4 CB_2_4 -1
    X_2_3_4 PB_3_4 1
    X_2_3_4 CAP_4 1
    X_2_3_4 Q_3_0_4 0.235356
    X_2_3_4 Q_3_1_4 0.00264265
    X_2_3_4 Q_3_2_4 -0.597809
    X_2_4_4 CB_2_4 -1
    X_2_4_4 PB_4_4 1
    X_2_4_4 CAP_4 1
    X_2_4_4 Q_4_0_4 0.264613
    X_2_4_4 Q_4_1_4 0.299574
    X_2_4_4 Q_4_2_4 -0.535501
    BUY_3_4 COST 78.0985
    BUY_3_4 CB_3_4 1
    INV_3_4 COST 0.2
    INV_3_4 CB_3_4 -1
    INV_3_4 CB_3_5 1
    X_3_0_4 CB_3_4 -1
    X_3_0_4 PB_0_4 1
    X_3_0_4 CAP_4 1
    X_3_0_4 Q_0_0_4 -0.377958
    X_3_0_4 Q_0_1_4 0.390087
    X_3_0_4 Q_0_2_4 0.0126772
    X_3_1_4 CB_3_4 -1
    X_3_1_4 PB_1_4 1
    X_3_1_4 CAP_4 1
    X_3_1_4 Q_1_0_4 -0.479891
    X_3_1_4 Q_1_1_4 0.363575
    X_3_1_4 Q_1_2_4 0.101458
    X_3_2_4 CB_3_4 -1
    X_3_2_4 PB_2_4 1
    X_3_2_4 CAP_4 1
    X_3_2_4 Q_2_0_4 -0.64998
    X_3_2_4 Q_2_1_4 0.243572
    X_3_2_4 Q_2_2_4 -0.177904
    X_3_3_4 CB_3_4 -1
    X_3_3_4 PB_3_4 1
    X_3_3_4 CAP_4 1
    X_3_3_4 Q_3_0_4 -0.356728
    X_3_3_4 Q_3_1_4 0.0473323
    X_3_3_4 Q_3_2_4 -0.275847
    X_3_4_4 CB_3_4 -1
    X_3_4_4 PB_4_4 1
    X_3_4_4 CAP_4 1
    X_3_4_4 Q_4_0_4 -0.32747
    X_3_4_4 Q_4_1_4 0.344264
    X_3_4_4 Q_4_2_4 -0.213539
    BUY_4_4 COST 80.195
    BUY_4_4 CB_4_4 1
    INV_4_4 COST 0.2
    INV_4_4 CB_4_4 -1
    INV_4_4 CB_4_5 1
    X_4_0_4 CB_4_4 -1
    X_4_0_4 PB_0_4 1
    X_4_0_4 CAP_4 1
    X_4_0_4 Q_0_0_4 0.319278
    X_4_0_4 Q_0_1_4 -0.401889
    X_4_0_4 Q_0_2_4 0.0246664
    X_4_1_4 CB_4_4 -1
    X_4_1_4 PB_1_4 1
    X_4_1_4 CAP_4 1
    X_4_1_4 Q_1_0_4 0.217345
    X_4_1_4 Q_1_1_4 -0.428401
    X_4_1_4 Q_1_2_4 0.113447
    X_4_2_4 CB_4_4 -1
    X_4_2_4 PB_2_4 1
    X_4_2_4 CAP_4 1
    X_4_2_4 Q_2_0_4 0.047256
    X_4_2_4 Q_2_1_4 -0.548404
    X_4_2_4 Q_2_2_4 -0.165915
    X_4_3_4 CB_4_4 -1
    X_4_3_4 PB_3_4 1
    X_4_3_4 CAP_4 1
    X_4_3_4 Q_3_0_4 0.340508
    X_4_3_4 Q_3_1_4 -0.744644
    X_4_3_4 Q_3_2_4 -0.263858
    X_4_4_4 CB_4_4 -1
    X_4_4_4 PB_4_4 1
    X_4_4_4 CAP_4 1
    X_4_4_4 Q_4_0_4 0.369766
    X_4_4_4 Q_4_1_4 -0.447712
    X_4_4_4 Q_4_2_4 -0.20155
    BUY_5_4 COST 55.733
    BUY_5_4 CB_5_4 1
    INV_5_4 COST 0.2
    INV_5_4 CB_5_4 -1
    INV_5_4 CB_5_5 1
    X_5_0_4 CB_5_4 -1
    X_5_0_4 PB_0_4 1
    X_5_0_4 CAP_4 1
    X_5_0_4 Q_0_0_4 0.280575
    X_5_0_4 Q_0_1_4 -0.186566
    X_5_0_4 Q_0_2_4 0.499556
    X_5_1_4 CB_5_4 -1
    X_5_1_4 PB_1_4 1
    X_5_1_4 CAP_4 1
    X_5_1_4 Q_1_0_4 0.178641
    X_5_1_4 Q_1_1_4 -0.213078
    X_5_1_4 Q_1_2_4 0.588337
    X_5_2_4 CB_5_4 -1
    X_5_2_4 PB_2_4 1
    X_5_2_4 CAP_4 1
    X_5_2_4 Q_2_0_4 0.00855294
    X_5_2_4 Q_2_1_4 -0.33308
    X_5_2_4 Q_2_2_4 0.308975
    X_5_3_4 CB_5_4 -1
    X_5_3_4 PB_3_4 1
    X_5_3_4 CAP_4 1
    X_5_3_4 Q_3_0_4 0.301805
    X_5_3_4 Q_3_1_4 -0.52932
    X_5_3_4 Q_3_2_4 0.211031
    X_5_4_4 CB_5_4 -1
    X_5_4_4 PB_4_4 1
    X_5_4_4 CAP_4 1
    X_5_4_4 Q_4_0_4 0.331063
    X_5_4_4 Q_4_1_4 -0.232389
    X_5_4_4 Q_4_2_4 0.273339
    BUY_6_4 COST 63.4567
    BUY_6_4 CB_6_4 1
    INV_6_4 COST 0.2
    INV_6_4 CB_6_4 -1
    INV_6_4 CB_6_5 1
    X_6_0_4 CB_6_4 -1
    X_6_0_4 PB_0_4 1
    X_6_0_4 CAP_4 1
    X_6_0_4 Q_0_0_4 0.451468
    X_6_0_4 Q_0_1_4 -0.374829
    X_6_0_4 Q_0_2_4 -0.374278
    X_6_1_4 CB_6_4 -1
    X_6_1_4 PB_1_4 1
    X_6_1_4 CAP_4 1
    X_6_1_4 Q_1_0_4 0.349535
    X_6_1_4 Q_1_1_4 -0.401341
    X_6_1_4 Q_1_2_4 -0.285497
    X_6_2_4 CB_6_4 -1
    X_6_2_4 PB_2_4 1
    X_6_2_4 CAP_4 1
    X_6_2_4 Q_2_0_4 0.179446
    X_6_2_4 Q_2_1_4 -0.521344
    X_6_2_4 Q_2_2_4 -0.564859
    X_6_3_4 CB_6_4 -1
    X_6_3_4 PB_3_4 1
    X_6_3_4 CAP_4 1
    X_6_3_4 Q_3_0_4 0.472698
    X_6_3_4 Q_3_1_4 -0.717584
    X_6_3_4 Q_3_2_4 -0.662802
    X_6_4_4 CB_6_4 -1
    X_6_4_4 PB_4_4 1
    X_6_4_4 CAP_4 1
    X_6_4_4 Q_4_0_4 0.501956
    X_6_4_4 Q_4_1_4 -0.420652
    X_6_4_4 Q_4_2_4 -0.600494
    BUY_7_4 COST 89.651
    BUY_7_4 CB_7_4 1
    INV_7_4 COST 0.2
    INV_7_4 CB_7_4 -1
    INV_7_4 CB_7_5 1
    X_7_0_4 CB_7_4 -1
    X_7_0_4 PB_0_4 1
    X_7_0_4 CAP_4 1
    X_7_0_4 Q_0_0_4 0.109454
    X_7_0_4 Q_0_1_4 0.488302
    X_7_0_4 Q_0_2_4 -0.0363074
    X_7_1_4 CB_7_4 -1
    X_7_1_4 PB_1_4 1
    X_7_1_4 CAP_4 1
    X_7_1_4 Q_1_0_4 0.00752029
    X_7_1_4 Q_1_1_4 0.46179
    X_7_1_4 Q_1_2_4 0.0524737
    X_7_2_4 CB_7_4 -1
    X_7_2_4 PB_2_4 1
    X_7_2_4 CAP_4 1
    X_7_2_4 Q_2_0_4 -0.162568
    X_7_2_4 Q_2_1_4 0.341787
    X_7_2_4 Q_2_2_4 -0.226888
    X_7_3_4 CB_7_4 -1
    X_7_3_4 PB_3_4 1
    X_7_3_4 CAP_4 1
    X_7_3_4 Q_3_0_4 0.130684
    X_7_3_4 Q_3_1_4 0.145547
    X_7_3_4 Q_3_2_4 -0.324832
    X_7_4_4 CB_7_4 -1
    X_7_4_4 PB_4_4 1
    X_7_4_4 CAP_4 1
    X_7_4_4 Q_4_0_4 0.159941
    X_7_4_4 Q_4_1_4 0.442479
    X_7_4_4 Q_4_2_4 -0.262524
    BUY_8_4 COST 86.9506
    BUY_8_4 CB_8_4 1
    INV_8_4 COST 0.2
    INV_8_4 CB_8_4 -1
    INV_8_4 CB_8_5 1
    X_8_0_4 CB_8_4 -1
    X_8_0_4 PB_0_4 1
    X_8_0_4 CAP_4 1
    X_8_0_4 Q_0_0_4 -0.199119
    X_8_0_4 Q_0_1_4 -0.0028792
    X_8_0_4 Q_0_2_4 -0.370863
    X_8_1_4 CB_8_4 -1
    X_8_1_4 PB_1_4 1
    X_8_1_4 CAP_4 1
    X_8_1_4 Q_1_0_4 -0.301052
    X_8_1_4 Q_1_1_4 -0.029391
    X_8_1_4 Q_1_2_4 -0.282082
    X_8_2_4 CB_8_4 -1
    X_8_2_4 PB_2_4 1
    X_8_2_4 CAP_4 1
    X_8_2_4 Q_2_0_4 -0.471141
    X_8_2_4 Q_2_1_4 -0.149394
    X_8_2_4 Q_2_2_4 -0.561444
    X_8_3_4 CB_8_4 -1
    X_8_3_4 PB_3_4 1
    X_8_3_4 CAP_4 1
    X_8_3_4 Q_3_0_4 -0.177888
    X_8_3_4 Q_3_1_4 -0.345634
    X_8_3_4 Q_3_2_4 -0.659387
    X_8_4_4 CB_8_4 -1
    X_8_4_4 PB_4_4 1
    X_8_4_4 CAP_4 1
    X_8_4_4 Q_4_0_4 -0.148631
    X_8_4_4 Q_4_1_4 -0.0487021
    X_8_4_4 Q_4_2_4 -0.597079
    BUY_9_4 COST 61.6579
    BUY_9_4 CB_9_4 1
    INV_9_4 COST 0.2
    INV_9_4 CB_9_4 -1
    INV_9_4 CB_9_5 1
    X_9_0_4 CB_9_4 -1
    X_9_0_4 PB_0_4 1
    X_9_0_4 CAP_4 1
    X_9_0_4 Q_0_0_4 -0.194281
    X_9_0_4 Q_0_1_4 0.0121033
    X_9_0_4 Q_0_2_4 0.0725702
    X_9_1_4 CB_9_4 -1
    X_9_1_4 PB_1_4 1
    X_9_1_4 CAP_4 1
    X_9_1_4 Q_1_0_4 -0.296214
    X_9_1_4 Q_1_1_4 -0.0144085
    X_9_1_4 Q_1_2_4 0.161351
    X_9_2_4 CB_9_4 -1
    X_9_2_4 PB_2_4 1
    X_9_2_4 CAP_4 1
    X_9_2_4 Q_2_0_4 -0.466303
    X_9_2_4 Q_2_1_4 -0.134411
    X_9_2_4 Q_2_2_4 -0.118011
    X_9_3_4 CB_9_4 -1
    X_9_3_4 PB_3_4 1
    X_9_3_4 CAP_4 1
    X_9_3_4 Q_3_0_4 -0.173051
    X_9_3_4 Q_3_1_4 -0.330651
    X_9_3_4 Q_3_2_4 -0.215954
    X_9_4_4 CB_9_4 -1
    X_9_4_4 PB_4_4 1
    X_9_4_4 CAP_4 1
    X_9_4_4 Q_4_0_4 -0.143793
    X_9_4_4 Q_4_1_4 -0.0337196
    X_9_4_4 Q_4_2_4 -0.153646
    SELL_0_4 COST -109.456
    SELL_0_4 PB_0_4 -1
    PINV_0_4 COST 0.5
    PINV_0_4 PB_0_4 -1
    PINV_0_4 PB_0_5 1
    SELL_1_4 COST -75.1351
    SELL_1_4 PB_1_4 -1
    PINV_1_4 COST 0.5
    PINV_1_4 PB_1_4 -1
    PINV_1_4 PB_1_5 1
    SELL_2_4 COST -82.6802
    SELL_2_4 PB_2_4 -1
    PINV_2_4 COST 0.5
    PINV_2_4 PB_2_4 -1
    PINV_2_4 PB_2_5 1
    SELL_3_4 COST -121.707
    SELL_3_4 PB_3_4 -1
    PINV_3_4 COST 0.5
    PINV_3_4 PB_3_4 -1
    PINV_3_4 PB_3_5 1
    SELL_4_4 COST -96.4753
    SELL_4_4 PB_4_4 -1
    PINV_4_4 COST 0.5
    PINV_4_4 PB_4_4 -1
    PINV_4_4 PB_4_5 1
    BUY_0_5 COST 69.743
    BUY_0_5 CB_0_5 1
    INV_0_5 COST 0.2
    INV_0_5 CB_0_5 -1
    INV_0_5 CB_0_6 1
    X_0_0_5 CB_0_5 -1
    X_0_0_5 PB_0_5 1
    X_0_0_5 CAP_5 1
    X_0_0_5 Q_0_0_5 -0.404888
    X_0_0_5 Q_0_1_5 -0.40389
    X_0_0_5 Q_0_2_5 -0.398451
    X_0_1_5 CB_0_5 -1
    X_0_1_5 PB_1_5 1
    X_0_1_5 CAP_5 1
    X_0_1_5 Q_1_0_5 -0.506822
    X_0_1_5 Q_1_1_5 -0.430402
    X_0_1_5 Q_1_2_5 -0.30967
    X_0_2_5 CB_0_5 -1
    X_0_2_5 PB_2_5 1
    X_0_2_5 CAP_5 1
    X_0_2_5 Q_2_0_5 -0.67691
    X_0_2_5 Q_2_1_5 -0.550404
    X_0_2_5 Q_2_2_5 -0.589032
    X_0_3_5 CB_0_5 -1
    X_0_3_5 PB_3_5 1
    X_0_3_5 CAP_5 1
    X_0_3_5 Q_3_0_5 -0.383658
    X_0_3_5 Q_3_1_5 -0.746645
    X_0_3_5 Q_3_2_5 -0.686976
    X_0_4_5 CB_0_5 -1
    X_0_4_5 PB_4_5 1
    X_0_4_5 CAP_5 1
    X_0_4_5 Q_4_0_5 -0.3544
    X_0_4_5 Q_4_1_5 -0.449713
    X_0_4_5 Q_4_2_5 -0.624668
    BUY_1_5 COST 82.3009
    BUY_1_5 CB_1_5 1
    INV_1_5 COST 0.2
    INV_1_5 CB_1_5 -1
    INV_1_5 CB_1_6 1
    X_1_0_5 CB_1_5 -1
    X_1_0_5 PB_0_5 1
    X_1_0_5 CAP_5 1
    X_1_0_5 Q_0_0_5 -0.162572
    X_1_0_5 Q_0_1_5 0.0667734
    X_1_0_5 Q_0_2_5 0.028565
    X_1_1_5 CB_1_5 -1
    X_1_1_5 PB_1_5 1
    X_1_1_5 CAP_5 1
    X_1_1_5 Q_1_0_5 -0.264506
    X_1_1_5 Q_1_1_5 0.0402616
    X_1_1_5 Q_1_2_5 0.117346
    X_1_2_5 CB_1_5 -1
    X_1_2_5 PB_2_5 1
    X_1_2_5 CAP_5 1
    X_1_2_5 Q_2_0_5 -0.434595
    X_1_2_5 Q_2_1_5 -0.0797411
    X_1_2_5 Q_2_2_5 -0.162016
    X_1_3_5 CB_1_5 -1
    X_1_3_5 PB_3_5 1
    X_1_3_5 CAP_5 1
    X_1_3_5 Q_3_0_5 -0.141342
    X_1_3_5 Q_3_1_5 -0.275981
    X_1_3_5 Q_3_2_5 -0.259959
    X_1_4_5 CB_1_5 -1
    X_1_4_5 PB_4_5 1
    X_1_4_5 CAP_5 1
    X_1_4_5 Q_4_0_5 -0.112085
    X_1_4_5 Q_4_1_5 0.0209505
    X_1_4_5 Q_4_2_5 -0.197651
    BUY_2_5 COST 56.4071
    BUY_2_5 CB_2_5 1
    INV_2_5 COST 0.2
    INV_2_5 CB_2_5 -1
    INV_2_5 CB_2_6 1
    X_2_0_5 CB_2_5 -1
    X_2_0_5 PB_0_5 1
    X_2_0_5 CAP_5 1
    X_2_0_5 Q_0_0_5 0.214125
    X_2_0_5 Q_0_1_5 0.345397
    X_2_0_5 Q_0_2_5 -0.309285
    X_2_1_5 CB_2_5 -1
    X_2_1_5 PB_1_5 1
    X_2_1_5 CAP_5 1
    X_2_1_5 Q_1_0_5 0.112192
    X_2_1_5 Q_1_1_5 0.318885
    X_2_1_5 Q_1_2_5 -0.220504
    X_2_2_5 CB_2_5 -1
    X_2_2_5 PB_2_5 1
    X_2_2_5 CAP_5 1
    X_2_2_5 Q_2_0_5 -0.0578968
    X_2_2_5 Q_2_1_5 0.198883
    X_2_2_5 Q_2_2_5 -0.499866
    X_2_3_5 CB_2_5 -1
    X_2_3_5 PB_3_5 1
    X_2_3_5 CAP_5 1
    X_2_3_5 Q_3_0_5 0.235356
    X_2_3_5 Q_3_1_5 0.00264265
    X_2_3_5 Q_3_2_5 -0.597809
    X_2_4_5 CB_2_5 -1
    X_2_4_5 PB_4_5 1
    X_2_4_5 CAP_5 1
    X_2_4_5 Q_4_0_5 0.264613
    X_2_4_5 Q_4_1_5 0.299574
    X_2_4_5 Q_4_2_5 -0.535501
    BUY_3_5 COST 85.4792
    BUY_3_5 CB_3_5 1
    INV_3_5 COST 0.2
    INV_3_5 CB_3_5 -1
    INV_3_5 CB_3_6 1
    X_3_0_5 CB_3_5 -1
    X_3_0_5 PB_0_5 1
    X_3_0_5 CAP_5 1
    X_3_0_5 Q_0_0_5 -0.377958
    X_3_0_5 Q_0_1_5 0.390087
    X_3_0_5 Q_0_2_5 0.0126772
    X_3_1_5 CB_3_5 -1
    X_3_1_5 PB_1_5 1
    X_3_1_5 CAP_5 1
    X_3_1_5 Q_1_0_5 -0.479891
    X_3_1_5 Q_1_1_5 0.363575
    X_3_1_5 Q_1_2_5 0.101458
    X_3_2_5 CB_3_5 -1
    X_3_2_5 PB_2_5 1
    X_3_2_5 CAP_5 1
    X_3_2_5 Q_2_0_5 -0.64998
    X_3_2_5 Q_2_1_5 0.243572
    X_3_2_5 Q_2_2_5 -0.177904
    X_3_3_5 CB_3_5 -1
    X_3_3_5 PB_3_5 1
    X_3_3_5 CAP_5 1
    X_3_3_5 Q_3_0_5 -0.356728
    X_3_3_5 Q_3_1_5 0.0473323
    X_3_3_5 Q_3_2_5 -0.275847
    X_3_4_5 CB_3_5 -1
    X_3_4_5 PB_4_5 1
    X_3_4_5 CAP_5 1
    X_3_4_5 Q_4_0_5 -0.32747
    X_3_4_5 Q_4_1_5 0.344264
    X_3_4_5 Q_4_2_5 -0.213539
    BUY_4_5 COST 71.7256
    BUY_4_5 CB_4_5 1
    INV_4_5 COST 0.2
    INV_4_5 CB_4_5 -1
    INV_4_5 CB_4_6 1
    X_4_0_5 CB_4_5 -1
    X_4_0_5 PB_0_5 1
    X_4_0_5 CAP_5 1
    X_4_0_5 Q_0_0_5 0.319278
    X_4_0_5 Q_0_1_5 -0.401889
    X_4_0_5 Q_0_2_5 0.0246664
    X_4_1_5 CB_4_5 -1
    X_4_1_5 PB_1_5 1
    X_4_1_5 CAP_5 1
    X_4_1_5 Q_1_0_5 0.217345
    X_4_1_5 Q_1_1_5 -0.428401
    X_4_1_5 Q_1_2_5 0.113447
    X_4_2_5 CB_4_5 -1
    X_4_2_5 PB_2_5 1
    X_4_2_5 CAP_5 1
    X_4_2_5 Q_2_0_5 0.047256
    X_4_2_5 Q_2_1_5 -0.548404
    X_4_2_5 Q_2_2_5 -0.165915
    X_4_3_5 CB_4_5 -1
    X_4_3_5 PB_3_5 1
    X_4_3_5 CAP_5 1
    X_4_3_5 Q_3_0_5 0.340508
    X_4_3_5 Q_3_1_5 -0.744644
    X_4_3_5 Q_3_2_5 -0.263858
    X_4_4_5 CB_4_5 -1
    X_4_4_5 PB_4_5 1
    X_4_4_5 CAP_5 1
    X_4_4_5 Q_4_0_5 0.369766
    X_4_4_5 Q_4_1_5 -0.447712
    X_4_4_5 Q_4_2_5 -0.20155
    BUY_5_5 COST 52.8957
    BUY_5_5 CB_5_5 1
    INV_5_5 COST 0.2
    INV_5_5 CB_5_5 -1
    INV_5_5 CB_5_6 1
    X_5_0_5 CB_5_5 -1
    X_5_0_5 PB_0_5 1
    X_5_0_5 CAP_5 1
    X_5_0_5 Q_0_0_5 0.280575
    X_5_0_5 Q_0_1_5 -0.186566
    X_5_0_5 Q_0_2_5 0.499556
    X_5_1_5 CB_5_5 -1
    X_5_1_5 PB_1_5 1
    X_5_1_5 CAP_5 1
    X_5_1_5 Q_1_0_5 0.178641
    X_5_1_5 Q_1_1_5 -0.213078
    X_5_1_5 Q_1_2_5 0.588337
    X_5_2_5 CB_5_5 -1
    X_5_2_5 PB_2_5 1
    X_5_2_5 CAP_5 1
    X_5_2_5 Q_2_0_5 0.00855294
    X_5_2_5 Q_2_1_5 -0.33308
    X_5_2_5 Q_2_2_5 0.308975
    X_5_3_5 CB_5_5 -1
    X_5_3_5 PB_3_5 1
    X_5_3_5 CAP_5 1
    X_5_3_5 Q_3_0_5 0.301805
    X_5_3_5 Q_3_1_5 -0.52932
    X_5_3_5 Q_3_2_5 0.211031
    X_5_4_5 CB_5_5 -1
    X_5_4_5 PB_4_5 1
    X_5_4_5 CAP_5 1
    X_5_4_5 Q_4_0_5 0.331063
    X_5_4_5 Q_4_1_5 -0.232389
    X_5_4_5 Q_4_2_5 0.273339
    BUY_6_5 COST 63.8305
    BUY_6_5 CB_6_5 1
    INV_6_5 COST 0.2
    INV_6_5 CB_6_5 -1
    INV_6_5 CB_6_6 1
    X_6_0_5 CB_6_5 -1
    X_6_0_5 PB_0_5 1
    X_6_0_5 CAP_5 1
    X_6_0_5 Q_0_0_5 0.451468
    X_6_0_5 Q_0_1_5 -0.374829
    X_6_0_5 Q_0_2_5 -0.374278
    X_6_1_5 CB_6_5 -1
    X_6_1_5 PB_1_5 1
    X_6_1_5 CAP_5 1
    X_6_1_5 Q_1_0_5 0.349535
    X_6_1_5 Q_1_1_5 -0.401341
    X_6_1_5 Q_1_2_5 -0.285497
    X_6_2_5 CB_6_5 -1
    X_6_2_5 PB_2_5 1
    X_6_2_5 CAP_5 1
    X_6_2_5 Q_2_0_5 0.179446
    X_6_2_5 Q_2_1_5 -0.521344
    X_6_2_5 Q_2_2_5 -0.564859
    X_6_3_5 CB_6_5 -1
    X_6_3_5 PB_3_5 1
    X_6_3_5 CAP_5 1
    X_6_3_5 Q_3_0_5 0.472698
    X_6_3_5 Q_3_1_5 -0.717584
    X_6_3_5 Q_3_2_5 -0.662802
    X_6_4_5 CB_6_5 -1
    X_6_4_5 PB_4_5 1
    X_6_4_5 CAP_5 1
    X_6_4_5 Q_4_0_5 0.501956
    X_6_4_5 Q_4_1_5 -0.420652
    X_6_4_5 Q_4_2_5 -0.600494
    BUY_7_5 COST 75.8883
    BUY_7_5 CB_7_5 1
    INV_7_5 COST 0.2
    INV_7_5 CB_7_5 -1
    INV_7_5 CB_7_6 1
    X_7_0_5 CB_7_5 -1
    X_7_0_5 PB_0_5 1
    X_7_0_5 CAP_5 1
    X_7_0_5 Q_0_0_5 0.109454
    X_7_0_5 Q_0_1_5 0.488302
    X_7_0_5 Q_0_2_5 -0.0363074
    X_7_1_5 CB_7_5 -1
    X_7_1_5 PB_1_5 1
    X_7_1_5 CAP_5 1
    X_7_1_5 Q_1_0_5 0.00752029
    X_7_1_5 Q_1_1_5 0.46179
    X_7_1_5 Q_1_2_5 0.0524737
    X_7_2_5 CB_7_5 -1
    X_7_2_5 PB_2_5 1
    X_7_2_5 CAP_5 1
    X_7_2_5 Q_2_0_5 -0.162568
    X_7_2_5 Q_2_1_5 0.341787
    X_7_2_5 Q_2_2_5 -0.226888
    X_7_3_5 CB_7_5 -1
    X_7_3_5 PB_3_5 1
    X_7_3_5 CAP_5 1
    X_7_3_5 Q_3_0_5 0.130684
    X_7_3_5 Q_3_1_5 0.145547
    X_7_3_5 Q_3_2_5 -0.324832
    X_7_4_5 CB_7_5 -1
    X_7_4_5 PB_4_5 1
    X_7_4_5 CAP_5 1
    X_7_4_5 Q_4_0_5 0.159941
    X_7_4_5 Q_4_1_5 0.442479
    X_7_4_5 Q_4_2_5 -0.262524
    BUY_8_5 COST 83.8996
    BUY_8_5 CB_8_5 1
    INV_8_5 COST 0.2
    INV_8_5 CB_8_5 -1
    INV_8_5 CB_8_6 1
    X_8_0_5 CB_8_5 -1
    X_8_0_5 PB_0_5 1
    X_8_0_5 CAP_5 1
    X_8_0_5 Q_0_0_5 -0.199119
    X_8_0_5 Q_0_1_5 -0.0028792
    X_8_0_5 Q_0_2_5 -0.370863
    X_8_1_5 CB_8_5 -1
    X_8_1_5 PB_1_5 1
    X_8_1_5 CAP_5 1
    X_8_1_5 Q_1_0_5 -0.301052
    X_8_1_5 Q_1_1_5 -0.029391
    X_8_1_5 Q_1_2_5 -0.282082
    X_8_2_5 CB_8_5 -1
    X_8_2_5 PB_2_5 1
    X_8_2_5 CAP_5 1
    X_8_2_5 Q_2_0_5 -0.471141
    X_8_2_5 Q_2_1_5 -0.149394
    X_8_2_5 Q_2_2_5 -0.561444
    X_8_3_5 CB_8_5 -1
    X_8_3_5 PB_3_5 1
    X_8_3_5 CAP_5 1
    X_8_3_5 Q_3_0_5 -0.177888
    X_8_3_5 Q_3_1_5 -0.345634
    X_8_3_5 Q_3_2_5 -0.659387
    X_8_4_5 CB_8_5 -1
    X_8_4_5 PB_4_5 1
    X_8_4_5 CAP_5 1
    X_8_4_5 Q_4_0_5 -0.148631
    X_8_4_5 Q_4_1_5 -0.0487021
    X_8_4_5 Q_4_2_5 -0.597079
    BUY_9_5 COST 59.5596
    BUY_9_5 CB_9_5 1
    INV_9_5 COST 0.2
    INV_9_5 CB_9_5 -1
    INV_9_5 CB_9_6 1
    X_9_0_5 CB_9_5 -1
    X_9_0_5 PB_0_5 1
    X_9_0_5 CAP_5 1
    X_9_0_5 Q_0_0_5 -0.194281
    X_9_0_5 Q_0_1_5 0.0121033
    X_9_0_5 Q_0_2_5 0.0725702
    X_9_1_5 CB_9_5 -1
    X_9_1_5 PB_1_5 1
    X_9_1_5 CAP_5 1
    X_9_1_5 Q_1_0_5 -0.296214
    X_9_1_5 Q_1_1_5 -0.0144085
    X_9_1_5 Q_1_2_5 0.161351
    X_9_2_5 CB_9_5 -1
    X_9_2_5 PB_2_5 1
    X_9_2_5 CAP_5 1
    X_9_2_5 Q_2_0_5 -0.466303
    X_9_2_5 Q_2_1_5 -0.134411
    X_9_2_5 Q_2_2_5 -0.118011
    X_9_3_5 CB_9_5 -1
    X_9_3_5 PB_3_5 1
    X_9_3_5 CAP_5 1
    X_9_3_5 Q_3_0_5 -0.173051
    X_9_3_5 Q_3_1_5 -0.330651
    X_9_3_5 Q_3_2_5 -0.215954
    X_9_4_5 CB_9_5 -1
    X_9_4_5 PB_4_5 1
    X_9_4_5 CAP_5 1
    X_9_4_5 Q_4_0_5 -0.143793
    X_9_4_5 Q_4_1_5 -0.0337196
    X_9_4_5 Q_4_2_5 -0.153646
    SELL_0_5 COST -110.289
    SELL_0_5 PB_0_5 -1
    PINV_0_5 COST 0.5
    PINV_0_5 PB_0_5 -1
    PINV_0_5 PB_0_6 1
    SELL_1_5 COST -70.0189
    SELL_1_5 PB_1_5 -1
    PINV_1_5 COST 0.5
    PINV_1_5 PB_1_5 -1
    PINV_1_5 PB_1_6 1
    SELL_2_5 COST -88.6231
    SELL_2_5 PB_2_5 -1
    PINV_2_5 COST 0.5
    PINV_2_5 PB_2_5 -1
    PINV_2_5 PB_2_6 1
    SELL_3_5 COST -120.062
    SELL_3_5 PB_3_5 -1
    PINV_3_5 COST 0.5
    PINV_3_5 PB_3_5 -1
    PINV_3_5 PB_3_6 1
    SELL_4_5 COST -92.5736
    SELL_4_5 PB_4_5 -1
    PINV_4_5 COST 0.5
    PINV_4_5 PB_4_5 -1
    PINV_4_5 PB_4_6 1
    BUY_0_6 COST 72.6478
    BUY_0_6 CB_0_6 1
    INV_0_6 COST 0.2
    INV_0_6 CB_0_6 -1
    INV_0_6 CB_0_7 1
    X_0_0_6 CB_0_6 -1
    X_0_0_6 PB_0_6 1
    X_0_0_6 CAP_6 1
    X_0_0_6 Q_0_0_6 -0.404888
    X_0_0_6 Q_0_1_6 -0.40389
    X_0_0_6 Q_0_2_6 -0.398451
    X_0_1_6 CB_0_6 -1
    X_0_1_6 PB_1_6 1
    X_0_1_6 CAP_6 1
    X_0_1_6 Q_1_0_6 -0.506822
    X_0_1_6 Q_1_1_6 -0.430402
    X_0_1_6 Q_1_2_6 -0.30967
    X_0_2_6 CB_0_6 -1
    X_0_2_6 PB_2_6 1
    X_0_2_6 CAP_6 1
    X_0_2_6 Q_2_0_6 -0.67691
    X_0_2_6 Q_2_1_6 -0.550404
    X_0_2_6 Q_2_2_6 -0.589032
    X_0_3_6 CB_0_6 -1
    X_0_3_6 PB_3_6 1
    X_0_3_6 CAP_6 1
    X_0_3_6 Q_3_0_6 -0.383658
    X_0_3_6 Q_3_1_6 -0.746645
    X_0_3_6 Q_3_2_6 -0.686976
    X_0_4_6 CB_0_6 -1
    X_0_4_6 PB_4_6 1
    X_0_4_6 CAP_6 1
    X_0_4_6 Q_4_0_6 -0.3544
    X_0_4_6 Q_4_1_6 -0.449713
    X_0_4_6 Q_4_2_6 -0.624668
    BUY_1_6 COST 83.0155
    BUY_1_6 CB_1_6 1
    INV_1_6 COST 0.2
    INV_1_6 CB_1_6 -1
    INV_1_6 CB_1_7 1
    X_1_0_6 CB_1_6 -1
    X_1_0_6 PB_0_6 1
    X_1_0_6 CAP_6 1
    X_1_0_6 Q_0_0_6 -0.162572
    X_1_0_6 Q_0_1_6 0.0667734
    X_1_0_6 Q_0_2_6 0.028565
    X_1_1_6 CB_1_6 -1
    X_1_1_6 PB_1_6 1
    X_1_1_6 CAP_6 1
    X_1_1_6 Q_1_0_6 -0.264506
    X_1_1_6 Q_1_1_6 0.0402616
    X_1_1_6 Q_1_2_6 0.117346
    X_1_2_6 CB_1_6 -1
    X_1_2_6 PB_2_6 1
    X_1_2_6 CAP_6 1
    X_1_2_6 Q_2_0_6 -0.434595
    X_1_2_6 Q_2_1_6 -0.0797411
    X_1_2_6 Q_2_2_6 -0.162016
    X_1_3_6 CB_1_6 -1
    X_1_3_6 PB_3_6 1
    X_1_3_6 CAP_6 1
    X_1_3_6 Q_3_0_6 -0.141342
    X_1_3_6 Q_3_1_6 -0.275981
    X_1_3_6 Q_3_2_6 -0.259959
    X_1_4_6 CB_1_6 -1
    X_1_4_6 PB_4_6 1
    X_1_4_6 CAP_6 1
    X_1_4_6 Q_4_0_6 -0.112085
    X_1_4_6 Q_4_1_6 0.0209505
    X_1_4_6 Q_4_2_6 -0.197651
    BUY_2_6 COST 62.9631
    BUY_2_6 CB_2_6 1
    INV_2_6 COST 0.2
    INV_2_6 CB_2_6 -1
    INV_2_6 CB_2_7 1
    X_2_0_6 CB_2_6 -1
    X_2_0_6 PB_0_6 1
    X_2_0_6 CAP_6 1
    X_2_0_6 Q_0_0_6 0.214125
    X_2_0_6 Q_0_1_6 0.345397
    X_2_0_6 Q_0_2_6 -0.309285
    X_2_1_6 CB_2_6 -1
    X_2_1_6 PB_1_6 1
    X_2_1_6 CAP_6 1
    X_2_1_6 Q_1_0_6 0.112192
    X_2_1_6 Q_1_1_6 0.318885
    X_2_1_6 Q_1_2_6 -0.220504
    X_2_2_6 CB_2_6 -1
    X_2_2_6 PB_2_6 1
    X_2_2_6 CAP_6 1
    X_2_2_6 Q_2_0_6 -0.0578968
    X_2_2_6 Q_2_1_6 0.198883
    X_2_2_6 Q_2_2_6 -0.499866
    X_2_3_6 CB_2_6 -1
    X_2_3_6 PB_3_6 1
    X_2_3_6 CAP_6 1
    X_2_3_6 Q_3_0_6 0.235356
    X_2_3_6 Q_3_1_6 0.00264265
    X_2_3_6 Q_3_2_6 -0.597809
    X_2_4_6 CB_2_6 -1
    X_2_4_6 PB_4_6 1
    X_2_4_6 CAP_6 1
    X_2_4_6 Q_4_0_6 0.264613
    X_2_4_6 Q_4_1_6 0.299574
    X_2_4_6 Q_4_2_6 -0.535501
    BUY_3_6 COST 79.7165
    BUY_3_6 CB_3_6 1
    INV_3_6 COST 0.2
    INV_3_6 CB_3_6 -1
    INV_3_6 CB_3_7 1
    X_3_0_6 CB_3_6 -1
    X_3_0_6 PB_0_6 1
    X_3_0_6 CAP_6 1
    X_3_0_6 Q_0_0_6 -0.377958
    X_3_0_6 Q_0_1_6 0.390087
    X_3_0_6 Q_0_2_6 0.0126772
    X_3_1_6 CB_3_6 -1
    X_3_1_6 PB_1_6 1
    X_3_1_6 CAP_6 1
    X_3_1_6 Q_1_0_6 -0.479891
    X_3_1_6 Q_1_1_6 0.363575
    X_3_1_6 Q_1_2_6 0.101458
    X_3_2_6 CB_3_6 -1
    X_3_2_6 PB_2_6 1
    X_3_2_6 CAP_6 1
    X_3_2_6 Q_2_0_6 -0.64998
    X_3_2_6 Q_2_1_6 0.243572
    X_3_2_6 Q_2_2_6 -0.177904
    X_3_3_6 CB_3_6 -1
    X_3_3_6 PB_3_6 1
    X_3_3_6 CAP_6 1
    X_3_3_6 Q_3_0_6 -0.356728
    X_3_3_6 Q_3_1_6 0.0473323
    X_3_3_6 Q_3_2_6 -0.275847
    X_3_4_6 CB_3_6 -1
    X_3_4_6 PB_4_6 1
    X_3_4_6 CAP_6 1
    X_3_4_6 Q_4_0_6 -0.32747
    X_3_4_6 Q_4_1_6 0.344264
    X_3_4_6 Q_4_2_6 -0.213539
    BUY_4_6 COST 70.8207
    BUY_4_6 CB_4_6 1
    INV_4_6 COST 0.2
    INV_4_6 CB_4_6 -1
    INV_4_6 CB_4_7 1
    X_4_0_6 CB_4_6 -1
    X_4_0_6 PB_0_6 1
    X_4_0_6 CAP_6 1
    X_4_0_6 Q_0_0_6 0.319278
    X_4_0_6 Q_0_1_6 -0.401889
    X_4_0_6 Q_0_2_6 0.0246664
    X_4_1_6 CB_4_6 -1
    X_4_1_6 PB_1_6 1
    X_4_1_6 CAP_6 1
    X_4_1_6 Q_1_0_6 0.217345
    X_4_1_6 Q_1_1_6 -0.428401
    X_4_1_6 Q_1_2_6 0.113447
    X_4_2_6 CB_4_6 -1
    X_4_2_6 PB_2_6 1
    X_4_2_6 CAP_6 1
    X_4_2_6 Q_2_0_6 0.047256
    X_4_2_6 Q_2_1_6 -0.548404
    X_4_2_6 Q_2_2_6 -0.165915
    X_4_3_6 CB_4_6 -1
    X_4_3_6 PB_3_6 1
    X_4_3_6 CAP_6 1
    X_4_3_6 Q_3_0_6 0.340508
    X_4_3_6 Q_3_1_6 -0.744644
    X_4_3_6 Q_3_2_6 -0.263858
    X_4_4_6 CB_4_6 -1
    X_4_4_6 PB_4_6 1
    X_4_4_6 CAP_6 1
    X_4_4_6 Q_4_0_6 0.369766
    X_4_4_6 Q_4_1_6 -0.447712
    X_4_4_6 Q_4_2_6 -0.20155
    BUY_5_6 COST 52.9927
    BUY_5_6 CB_5_6 1
    INV_5_6 COST 0.2
    INV_5_6 CB_5_6 -1
    INV_5_6 CB_5_7 1
    X_5_0_6 CB_5_6 -1
    X_5_0_6 PB_0_6 1
    X_5_0_6 CAP_6 1
    X_5_0_6 Q_0_0_6 0.280575
    X_5_0_6 Q_0_1_6 -0.186566
    X_5_0_6 Q_0_2_6 0.499556
    X_5_1_6 CB_5_6 -1
    X_5_1_6 PB_1_6 1
    X_5_1_6 CAP_6 1
    X_5_1_6 Q_1_0_6 0.178641
    X_5_1_6 Q_1_1_6 -0.213078
    X_5_1_6 Q_1_2_6 0.588337
    X_5_2_6 CB_5_6 -1
    X_5_2_6 PB_2_6 1
    X_5_2_6 CAP_6 1
    X_5_2_6 Q_2_0_6 0.00855294
    X_5_2_6 Q_2_1_6 -0.33308
    X_5_2_6 Q_2_2_6 0.308975
    X_5_3_6 CB_5_6 -1
    X_5_3_6 PB_3_6 1
    X_5_3_6 CAP_6 1
    X_5_3_6 Q_3_0_6 0.301805
    X_5_3_6 Q_3_1_6 -0.52932
    X_5_3_6 Q_3_2_6 0.211031
    X_5_4_6 CB_5_6 -1
    X_5_4_6 PB_4_6 1
    X_5_4_6 CAP_6 1
    X_5_4_6 Q_4_0_6 0.331063
    X_5_4_6 Q_4_1_6 -0.232389
    X_5_4_6 Q_4_2_6 0.273339
    BUY_6_6 COST 70.475
    BUY_6_6 CB_6_6 1
    INV_6_6 COST 0.2
    INV_6_6 CB_6_6 -1
    INV_6_6 CB_6_7 1
    X_6_0_6 CB_6_6 -1
    X_6_0_6 PB_0_6 1
    X_6_0_6 CAP_6 1
    X_6_0_6 Q_0_0_6 0.451468
    X_6_0_6 Q_0_1_6 -0.374829
    X_6_0_6 Q_0_2_6 -0.374278
    X_6_1_6 CB_6_6 -1
    X_6_1_6 PB_1_6 1
    X_6_1_6 CAP_6 1
    X_6_1_6 Q_1_0_6 0.349535
    X_6_1_6 Q_1_1_6 -0.401341
    X_6_1_6 Q_1_2_6 -0.285497
    X_6_2_6 CB_6_6 -1
    X_6_2_6 PB_2_6 1
    X_6_2_6 CAP_6 1
    X_6_2_6 Q_2_0_6 0.179446
    X_6_2_6 Q_2_1_6 -0.521344
    X_6_2_6 Q_2_2_6 -0.564859
    X_6_3_6 CB_6_6 -1
    X_6_3_6 PB_3_6 1
    X_6_3_6 CAP_6 1
    X_6_3_6 Q_3_0_6 0.472698
    X_6_3_6 Q_3_1_6 -0.717584
    X_6_3_6 Q_3_2_6 -0.662802
    X_6_4_6 CB_6_6 -1
    X_6_4_6 PB_4_6 1
    X_6_4_6 CAP_6 1
    X_6_4_6 Q_4_0_6 0.501956
    X_6_4_6 Q_4_1_6 -0.420652
    X_6_4_6 Q_4_2_6 -0.600494
    BUY_7_6 COST 76.0543
    BUY_7_6 CB_7_6 1
    INV_7_6 COST 0.2
    INV_7_6 CB_7_6 -1
    INV_7_6 CB_7_7 1
    X_7_0_6 CB_7_6 -1
    X_7_0_6 PB_0_6 1
    X_7_0_6 CAP_6 1
    X_7_0_6 Q_0_0_6 0.109454
    X_7_0_6 Q_0_1_6 0.488302
    X_7_0_6 Q_0_2_6 -0.0363074
    X_7_1_6 CB_7_6 -1
    X_7_1_6 PB_1_6 1
    X_7_1_6 CAP_6 1
    X_7_1_6 Q_1_0_6 0.00752029
    X_7_1_6 Q_1_1_6 0.46179
    X_7_1_6 Q_1_2_6 0.0524737
    X_7_2_6 CB_7_6 -1
    X_7_2_6 PB_2_6 1
    X_7_2_6 CAP_6 1
    X_7_2_6 Q_2_0_6 -0.162568
    X_7_2_6 Q_2_1_6 0.341787
    X_7_2_6 Q_2_2_6 -0.226888
    X_7_3_6 CB_7_6 -1
    X_7_3_6 PB_3_6 1
    X_7_3_6 CAP_6 1
    X_7_3_6 Q_3_0_6 0.130684
    X_7_3_6 Q_3_1_6 0.145547
    X_7_3_6 Q_3_2_6 -0.324832
    X_7_4_6 CB_7_6 -1
    X_7_4_6 PB_4_6 1
    X_7_4_6 CAP_6 1
    X_7_4_6 Q_4_0_6 0.159941
    X_7_4_6 Q_4_1_6 0.442479
    X_7_4_6 Q_4_2_6 -0.262524
    BUY_8_6 COST 83.1528
    BUY_8_6 CB_8_6 1
    INV_8_6 COST 0.2
    INV_8_6 CB_8_6 -1
    INV_8_6 CB_8_7 1
    X_8_0_6 CB_8_6 -1
    X_8_0_6 PB_0_6 1
    X_8_0_6 CAP_6 1
    X_8_0_6 Q_0_0_6 -0.199119
    X_8_0_6 Q_0_1_6 -0.0028792
    X_8_0_6 Q_0_2_6 -0.370863
    X_8_1_6 CB_8_6 -1
    X_8_1_6 PB_1_6 1
    X_8_1_6 CAP_6 1
    X_8_1_6 Q_1_0_6 -0.301052
    X_8_1_6 Q_1_1_6 -0.029391
    X_8_1_6 Q_1_2_6 -0.282082
    X_8_2_6 CB_8_6 -1
    X_8_2_6 PB_2_6 1
    X_8_2_6 CAP_6 1
    X_8_2_6 Q_2_0_6 -0.471141
    X_8_2_6 Q_2_1_6 -0.149394
    X_8_2_6 Q_2_2_6 -0.561444
    X_8_3_6 CB_8_6 -1
    X_8_3_6 PB_3_6 1
    X_8_3_6 CAP_6 1
    X_8_3_6 Q_3_0_6 -0.177888
    X_8_3_6 Q_3_1_6 -0.345634
    X_8_3_6 Q_3_2_6 -0.659387
    X_8_4_6 CB_8_6 -1
    X_8_4_6 PB_4_6 1
    X_8_4_6 CAP_6 1
    X_8_4_6 Q_4_0_6 -0.148631
    X_8_4_6 Q_4_1_6 -0.0487021
    X_8_4_6 Q_4_2_6 -0.597079
    BUY_9_6 COST 67.0313
    BUY_9_6 CB_9_6 1
    INV_9_6 COST 0.2
    INV_9_6 CB_9_6 -1
    INV_9_6 CB_9_7 1
    X_9_0_6 CB_9_6 -1
    X_9_0_6 PB_0_6 1
    X_9_0_6 CAP_6 1
    X_9_0_6 Q_0_0_6 -0.194281
    X_9_0_6 Q_0_1_6 0.0121033
    X_9_0_6 Q_0_2_6 0.0725702
    X_9_1_6 CB_9_6 -1
    X_9_1_6 PB_1_6 1
    X_9_1_6 CAP_6 1
    X_9_1_6 Q_1_0_6 -0.296214
    X_9_1_6 Q_1_1_6 -0.0144085
    X_9_1_6 Q_1_2_6 0.161351
    X_9_2_6 CB_9_6 -1
    X_9_2_6 PB_2_6 1
    X_9_2_6 CAP_6 1
    X_9_2_6 Q_2_0_6 -0.466303
    X_9_2_6 Q_2_1_6 -0.134411
    X_9_2_6 Q_2_2_6 -0.118011
    X_9_3_6 CB_9_6 -1
    X_9_3_6 PB_3_6 1
    X_9_3_6 CAP_6 1
    X_9_3_6 Q_3_0_6 -0.173051
    X_9_3_6 Q_3_1_6 -0.330651
    X_9_3_6 Q_3_2_6 -0.215954
    X_9_4_6 CB_9_6 -1
    X_9_4_6 PB_4_6 1
    X_9_4_6 CAP_6 1
    X_9_4_6 Q_4_0_6 -0.143793
    X_9_4_6 Q_4_1_6 -0.0337196
    X_9_4_6 Q_4_2_6 -0.153646
    SELL_0_6 COST -105.269
    SELL_0_6 PB_0_6 -1
    PINV_0_6 COST 0.5
    PINV_0_6 PB_0_6 -1
    PINV_0_6 PB_0_7 1
    SELL_1_6 COST -69.5792
    SELL_1_6 PB_1_6 -1
    PINV_1_6 COST 0.5
    PINV_1_6 PB_1_6 -1
    PINV_1_6 PB_1_7 1
    SELL_2_6 COST -87.0589
    SELL_2_6 PB_2_6 -1
    PINV_2_6 COST 0.5
    PINV_2_6 PB_2_6 -1
    PINV_2_6 PB_2_7 1
    SELL_3_6 COST -123.138
    SELL_3_6 PB_3_6 -1
    PINV_3_6 COST 0.5
    PINV_3_6 PB_3_6 -1
    PINV_3_6 PB_3_7 1
    SELL_4_6 COST -97.4789
    SELL_4_6 PB_4_6 -1
    PINV_4_6 COST 0.5
    PINV_4_6 PB_4_6 -1
    PINV_4_6 PB_4_7 1
    BUY_0_7 COST 80.4188
    BUY_0_7 CB_0_7 1
    INV_0_7 COST 0.2
    INV_0_7 CB_0_7 -1
    INV_0_7 CB_0_8 1
    X_0_0_7 CB_0_7 -1
    X_0_0_7 PB_0_7 1
    X_0_0_7 CAP_7 1
    X_0_0_7 Q_0_0_7 -0.404888
    X_0_0_7 Q_0_1_7 -0.40389
    X_0_0_7 Q_0_2_7 -0.398451
    X_0_1_7 CB_0_7 -1
    X_0_1_7 PB_1_7 1
    X_0_1_7 CAP_7 1
    X_0_1_7 Q_1_0_7 -0.506822
    X_0_1_7 Q_1_1_7 -0.430402
    X_0_1_7 Q_1_2_7 -0.30967
    X_0_2_7 CB_0_7 -1
    X_0_2_7 PB_2_7 1
    X_0_2_7 CAP_7 1
    X_0_2_7 Q_2_0_7 -0.67691
    X_0_2_7 Q_2_1_7 -0.550404
    X_0_2_7 Q_2_2_7 -0.589032
    X_0_3_7 CB_0_7 -1
    X_0_3_7 PB_3_7 1
    X_0_3_7 CAP_7 1
    X_0_3_7 Q_3_0_7 -0.383658
    X_0_3_7 Q_3_1_7 -0.746645
    X_0_3_7 Q_3_2_7 -0.686976
    X_0_4_7 CB_0_7 -1
    X_0_4_7 PB_4_7 1
    X_0_4_7 CAP_7 1
    X_0_4_7 Q_4_0_7 -0.3544
    X_0_4_7 Q_4_1_7 -0.449713
    X_0_4_7 Q_4_2_7 -0.624668
    BUY_1_7 COST 87.0714
    BUY_1_7 CB_1_7 1
    INV_1_7 COST 0.2
    INV_1_7 CB_1_7 -1
    INV_1_7 CB_1_8 1
    X_1_0_7 CB_1_7 -1
    X_1_0_7 PB_0_7 1
    X_1_0_7 CAP_7 1
    X_1_0_7 Q_0_0_7 -0.162572
    X_1_0_7 Q_0_1_7 0.0667734
    X_1_0_7 Q_0_2_7 0.028565
    X_1_1_7 CB_1_7 -1
    X_1_1_7 PB_1_7 1
    X_1_1_7 CAP_7 1
    X_1_1_7 Q_1_0_7 -0.264506
    X_1_1_7 Q_1_1_7 0.0402616
    X_1_1_7 Q_1_2_7 0.117346
    X_1_2_7 CB_1_7 -1
    X_1_2_7 PB_2_7 1
    X_1_2_7 CAP_7 1
    X_1_2_7 Q_2_0_7 -0.434595
    X_1_2_7 Q_2_1_7 -0.0797411
    X_1_2_7 Q_2_2_7 -0.162016
    X_1_3_7 CB_1_7 -1
    X_1_3_7 PB_3_7 1
    X_1_3_7 CAP_7 1
    X_1_3_7 Q_3_0_7 -0.141342
    X_1_3_7 Q_3_1_7 -0.275981
    X_1_3_7 Q_3_2_7 -0.259959
    X_1_4_7 CB_1_7 -1
    X_1_4_7 PB_4_7 1
    X_1_4_7 CAP_7 1
    X_1_4_7 Q_4_0_7 -0.112085
    X_1_4_7 Q_4_1_7 0.0209505
    X_1_4_7 Q_4_2_7 -0.197651
    BUY_2_7 COST 65.9175
    BUY_2_7 CB_2_7 1
    INV_2_7 COST 0.2
    INV_2_7 CB_2_7 -1
    INV_2_7 CB_2_8 1
    X_2_0_7 CB_2_7 -1
    X_2_0_7 PB_0_7 1
    X_2_0_7 CAP_7 1
    X_2_0_7 Q_0_0_7 0.214125
    X_2_0_7 Q_0_1_7 0.345397
    X_2_0_7 Q_0_2_7 -0.309285
    X_2_1_7 CB_2_7 -1
    X_2_1_7 PB_1_7 1
    X_2_1_7 CAP_7 1
    X_2_1_7 Q_1_0_7 0.112192
    X_2_1_7 Q_1_1_7 0.318885
    X_2_1_7 Q_1_2_7 -0.220504
    X_2_2_7 CB_2_7 -1
    X_2_2_7 PB_2_7 1
    X_2_2_7 CAP_7 1
    X_2_2_7 Q_2_0_7 -0.0578968
    X_2_2_7 Q_2_1_7 0.198883
    X_2_2_7 Q_2_2_7 -0.499866
    X_2_3_7 CB_2_7 -1
    X_2_3_7 PB_3_7 1
    X_2_3_7 CAP_7 1
    X_2_3_7 Q_3_0_7 0.235356
    X_2_3_7 Q_3_1_7 0.00264265
    X_2_3_7 Q_3_2_7 -0.597809
    X_2_4_7 CB_2_7 -1
    X_2_4_7 PB_4_7 1
    X_2_4_7 CAP_7 1
    X_2_4_7 Q_4_0_7 0.264613
    X_2_4_7 Q_4_1_7 0.299574
    X_2_4_7 Q_4_2_7 -0.535501
    BUY_3_7 COST 73.8693
    BUY_3_7 CB_3_7 1
    INV_3_7 COST 0.2
    INV_3_7 CB_3_7 -1
    INV_3_7 CB_3_8 1
    X_3_0_7 CB_3_7 -1
    X_3_0_7 PB_0_7 1
    X_3_0_7 CAP_7 1
    X_3_0_7 Q_0_0_7 -0.377958
    X_3_0_7 Q_0_1_7 0.390087
    X_3_0_7 Q_0_2_7 0.0126772
    X_3_1_7 CB_3_7 -1
    X_3_1_7 PB_1_7 1
    X_3_1_7 CAP_7 1
    X_3_1_7 Q_1_0_7 -0.479891
    X_3_1_7 Q_1_1_7 0.363575
    X_3_1_7 Q_1_2_7 0.101458
    X_3_2_7 CB_3_7 -1
    X_3_2_7 PB_2_7 1
    X_3_2_7 CAP_7 1
    X_3_2_7 Q_2_0_7 -0.64998
    X_3_2_7 Q_2_1_7 0.243572
    X_3_2_7 Q_2_2_7 -0.177904
    X_3_3_7 CB_3_7 -1
    X_3_3_7 PB_3_7 1
    X_3_3_7 CAP_7 1
    X_3_3_7 Q_3_0_7 -0.356728
    X_3_3_7 Q_3_1_7 0.0473323
    X_3_3_7 Q_3_2_7 -0.275847
    X_3_4_7 CB_3_7 -1
    X_3_4_7 PB_4_7 1
    X_3_4_7 CAP_7 1
    X_3_4_7 Q_4_0_7 -0.32747
    X_3_4_7 Q_4_1_7 0.344264
    X_3_4_7 Q_4_2_7 -0.213539
    BUY_4_7 COST 77.9829
    BUY_4_7 CB_4_7 1
    INV_4_7 COST 0.2
    INV_4_7 CB_4_7 -1
    INV_4_7 CB_4_8 1
    X_4_0_7 CB_4_7 -1
    X_4_0_7 PB_0_7 1
    X_4_0_7 CAP_7 1
    X_4_0_7 Q_0_0_7 0.319278
    X_4_0_7 Q_0_1_7 -0.401889
    X_4_0_7 Q_0_2_7 0.0246664
    X_4_1_7 CB_4_7 -1
    X_4_1_7 PB_1_7 1
    X_4_1_7 CAP_7 1
    X_4_1_7 Q_1_0_7 0.217345
    X_4_1_7 Q_1_1_7 -0.428401
    X_4_1_7 Q_1_2_7 0.113447
    X_4_2_7 CB_4_7 -1
    X_4_2_7 PB_2_7 1
    X_4_2_7 CAP_7 1
    X_4_2_7 Q_2_0_7 0.047256
    X_4_2_7 Q_2_1_7 -0.548404
    X_4_2_7 Q_2_2_7 -0.165915
    X_4_3_7 CB_4_7 -1
    X_4_3_7 PB_3_7 1
    X_4_3_7 CAP_7 1
    X_4_3_7 Q_3_0_7 0.340508
    X_4_3_7 Q_3_1_7 -0.744644
    X_4_3_7 Q_3_2_7 -0.263858
    X_4_4_7 CB_4_7 -1
    X_4_4_7 PB_4_7 1
    X_4_4_7 CAP_7 1
    X_4_4_7 Q_4_0_7 0.369766
    X_4_4_7 Q_4_1_7 -0.447712
    X_4_4_7 Q_4_2_7 -0.20155
    BUY_5_7 COST 57.8848
    BUY_5_7 CB_5_7 1
    INV_5_7 COST 0.2
    INV_5_7 CB_5_7 -1
    INV_5_7 CB_5_8 1
    X_5_0_7 CB_5_7 -1
    X_5_0_7 PB_0_7 1
    X_5_0_7 CAP_7 1
    X_5_0_7 Q_0_0_7 0.280575
    X_5_0_7 Q_0_1_7 -0.186566
    X_5_0_7 Q_0_2_7 0.499556
    X_5_1_7 CB_5_7 -1
    X_5_1_7 PB_1_7 1
    X_5_1_7 CAP_7 1
    X_5_1_7 Q_1_0_7 0.178641
    X_5_1_7 Q_1_1_7 -0.213078
    X_5_1_7 Q_1_2_7 0.588337
    X_5_2_7 CB_5_7 -1
    X_5_2_7 PB_2_7 1
    X_5_2_7 CAP_7 1
    X_5_2_7 Q_2_0_7 0.00855294
    X_5_2_7 Q_2_1_7 -0.33308
    X_5_2_7 Q_2_2_7 0.308975
    X_5_3_7 CB_5_7 -1
    X_5_3_7 PB_3_7 1
    X_5_3_7 CAP_7 1
    X_5_3_7 Q_3_0_7 0.301805
    X_5_3_7 Q_3_1_7 -0.52932
    X_5_3_7 Q_3_2_7 0.211031
    X_5_4_7 CB_5_7 -1
    X_5_4_7 PB_4_7 1
    X_5_4_7 CAP_7 1
    X_5_4_7 Q_4_0_7 0.331063
    X_5_4_7 Q_4_1_7 -0.232389
    X_5_4_7 Q_4_2_7 0.273339
    BUY_6_7 COST 68.4443
    BUY_6_7 CB_6_7 1
    INV_6_7 COST 0.2
    INV_6_7 CB_6_7 -1
    INV_6_7 CB_6_8 1
    X_6_0_7 CB_6_7 -1
    X_6_0_7 PB_0_7 1
    X_6_0_7 CAP_7 1
    X_6_0_7 Q_0_0_7 0.451468
    X_6_0_7 Q_0_1_7 -0.374829
    X_6_0_7 Q_0_2_7 -0.374278
    X_6_1_7 CB_6_7 -1
    X_6_1_7 PB_1_7 1
    X_6_1_7 CAP_7 1
    X_6_1_7 Q_1_0_7 0.349535
    X_6_1_7 Q_1_1_7 -0.401341
    X_6_1_7 Q_1_2_7 -0.285497
    X_6_2_7 CB_6_7 -1
    X_6_2_7 PB_2_7 1
    X_6_2_7 CAP_7 1
    X_6_2_7 Q_2_0_7 0.179446
    X_6_2_7 Q_2_1_7 -0.521344
    X_6_2_7 Q_2_2_7 -0.564859
    X_6_3_7 CB_6_7 -1
    X_6_3_7 PB_3_7 1
    X_6_3_7 CAP_7 1
    X_6_3_7 Q_3_0_7 0.472698
    X_6_3_7 Q_3_1_7 -0.717584
    X_6_3_7 Q_3_2_7 -0.662802
    X_6_4_7 CB_6_7 -1
    X_6_4_7 PB_4_7 1
    X_6_4_7 CAP_7 1
    X_6_4_7 Q_4_0_7 0.501956
    X_6_4_7 Q_4_1_7 -0.420652
    X_6_4_7 Q_4_2_7 -0.600494
    BUY_7_7 COST 86.9468
    BUY_7_7 CB_7_7 1
    INV_7_7 COST 0.2
    INV_7_7 CB_7_7 -1
    INV_7_7 CB_7_8 1
    X_7_0_7 CB_7_7 -1
    X_7_0_7 PB_0_7 1
    X_7_0_7 CAP_7 1
    X_7_0_7 Q_0_0_7 0.109454
    X_7_0_7 Q_0_1_7 0.488302
    X_7_0_7 Q_0_2_7 -0.0363074
    X_7_1_7 CB_7_7 -1
    X_7_1_7 PB_1_7 1
    X_7_1_7 CAP_7 1
    X_7_1_7 Q_1_0_7 0.00752029
    X_7_1_7 Q_1_1_7 0.46179
    X_7_1_7 Q_1_2_7 0.0524737
    X_7_2_7 CB_7_7 -1
    X_7_2_7 PB_2_7 1
    X_7_2_7 CAP_7 1
    X_7_2_7 Q_2_0_7 -0.162568
    X_7_2_7 Q_2_1_7 0.341787
    X_7_2_7 Q_2_2_7 -0.226888
    X_7_3_7 CB_7_7 -1
    X_7_3_7 PB_3_7 1
    X_7_3_7 CAP_7 1
    X_7_3_7 Q_3_0_7 0.130684
    X_7_3_7 Q_3_1_7 0.145547
    X_7_3_7 Q_3_2_7 -0.324832
    X_7_4_7 CB_7_7 -1
    X_7_4_7 PB_4_7 1
    X_7_4_7 CAP_7 1
    X_7_4_7 Q_4_0_7 0.159941
    X_7_4_7 Q_4_1_7 0.442479
    X_7_4_7 Q_4_2_7 -0.262524
    BUY_8_7 COST 89.9381
    BUY_8_7 CB_8_7 1
    INV_8_7 COST 0.2
    INV_8_7 CB_8_7 -1
    INV_8_7 CB_8_8 1
    X_8_0_7 CB_8_7 -1
    X_8_0_7 PB_0_7 1
    X_8_0_7 CAP_7 1
    X_8_0_7 Q_0_0_7 -0.199119
    X_8_0_7 Q_0_1_7 -0.0028792
    X_8_0_7 Q_0_2_7 -0.370863
    X_8_1_7 CB_8_7 -1
    X_8_1_7 PB_1_7 1
    X_8_1_7 CAP_7 1
    X_8_1_7 Q_1_0_7 -0.301052
    X_8_1_7 Q_1_1_7 -0.029391
    X_8_1_7 Q_1_2_7 -0.282082
    X_8_2_7 CB_8_7 -1
    X_8_2_7 PB_2_7 1
    X_8_2_7 CAP_7 1
    X_8_2_7 Q_2_0_7 -0.471141
    X_8_2_7 Q_2_1_7 -0.149394
    X_8_2_7 Q_2_2_7 -0.561444
    X_8_3_7 CB_8_7 -1
    X_8_3_7 PB_3_7 1
    X_8_3_7 CAP_7 1
    X_8_3_7 Q_3_0_7 -0.177888
    X_8_3_7 Q_3_1_7 -0.345634
    X_8_3_7 Q_3_2_7 -0.659387
    X_8_4_7 CB_8_7 -1
    X_8_4_7 PB_4_7 1
    X_8_4_7 CAP_7 1
    X_8_4_7 Q_4_0_7 -0.148631
    X_8_4_7 Q_4_1_7 -0.0487021
    X_8_4_7 Q_4_2_7 -0.597079
    BUY_9_7 COST 65.8043
    BUY_9_7 CB_9_7 1
    INV_9_7 COST 0.2
    INV_9_7 CB_9_7 -1
    INV_9_7 CB_9_8 1
    X_9_0_7 CB_9_7 -1
    X_9_0_7 PB_0_7 1
    X_9_0_7 CAP_7 1
    X_9_0_7 Q_0_0_7 -0.194281
    X_9_0_7 Q_0_1_7 0.0121033
    X_9_0_7 Q_0_2_7 0.0725702
    X_9_1_7 CB_9_7 -1
    X_9_1_7 PB_1_7 1
    X_9_1_7 CAP_7 1
    X_9_1_7 Q_1_0_7 -0.296214
    X_9_1_7 Q_1_1_7 -0.0144085
    X_9_1_7 Q_1_2_7 0.161351
    X_9_2_7 CB_9_7 -1
    X_9_2_7 PB_2_7 1
    X_9_2_7 CAP_7 1
    X_9_2_7 Q_2_0_7 -0.466303
    X_9_2_7 Q_2_1_7 -0.134411
    X_9_2_7 Q_2_2_7 -0.118011
    X_9_3_7 CB_9_7 -1
    X_9_3_7 PB_3_7 1
    X_9_3_7 CAP_7 1
    X_9_3_7 Q_3_0_7 -0.173051
    X_9_3_7 Q_3_1_7 -0.330651
    X_9_3_7 Q_3_2_7 -0.215954
    X_9_4_7 CB_9_7 -1
    X_9_4_7 PB_4_7 1
    X_9_4_7 CAP_7 1
    X_9_4_7 Q_4_0_7 -0.143793
    X_9_4_7 Q_4_1_7 -0.0337196
    X_9_4_7 Q_4_2_7 -0.153646
    SELL_0_7 COST -104.242
    SELL_0_7 PB_0_7 -1
    PINV_0_7 COST 0.5
    PINV_0_7 PB_0_7 -1
    PINV_0_7 PB_0_8 1
    SELL_1_7 COST -70.3272
    SELL_1_7 PB_1_7 -1
    PINV_1_7 COST 0.5
    PINV_1_7 PB_1_7 -1
    PINV_1_7 PB_1_8 1
    SELL_2_7 COST -85.8027
    SELL_2_7 PB_2_7 -1
    PINV_2_7 COST 0.5
    PINV_2_7 PB_2_7 -1
    PINV_2_7 PB_2_8 1
    SELL_3_7 COST -118.676
    SELL_3_7 PB_3_7 -1
    PINV_3_7 COST 0.5
    PINV_3_7 PB_3_7 -1
    PINV_3_7 PB_3_8 1
    SELL_4_7 COST -93.4829
    SELL_4_7 PB_4_7 -1
    PINV_4_7 COST 0.5
    PINV_4_7 PB_4_7 -1
    PINV_4_7 PB_4_8 1
    BUY_0_8 COST 69.8946
    BUY_0_8 CB_0_8 1
    INV_0_8 COST 0.2
    INV_0_8 CB_0_8 -1
    INV_0_8 CB_0_9 1
    X_0_0_8 CB_0_8 -1
    X_0_0_8 PB_0_8 1
    X_0_0_8 CAP_8 1
    X_0_0_8 Q_0_0_8 -0.404888
    X_0_0_8 Q_0_1_8 -0.40389
    X_0_0_8 Q_0_2_8 -0.398451
    X_0_1_8 CB_0_8 -1
    X_0_1_8 PB_1_8 1
    X_0_1_8 CAP_8 1
    X_0_1_8 Q_1_0_8 -0.506822
    X_0_1_8 Q_1_1_8 -0.430402
    X_0_1_8 Q_1_2_8 -0.30967
    X_0_2_8 CB_0_8 -1
    X_0_2_8 PB_2_8 1
    X_0_2_8 CAP_8 1
    X_0_2_8 Q_2_0_8 -0.67691
    X_0_2_8 Q_2_1_8 -0.550404
    X_0_2_8 Q_2_2_8 -0.589032
    X_0_3_8 CB_0_8 -1
    X_0_3_8 PB_3_8 1
    X_0_3_8 CAP_8 1
    X_0_3_8 Q_3_0_8 -0.383658
    X_0_3_8 Q_3_1_8 -0.746645
    X_0_3_8 Q_3_2_8 -0.686976
    X_0_4_8 CB_0_8 -1
    X_0_4_8 PB_4_8 1
    X_0_4_8 CAP_8 1
    X_0_4_8 Q_4_0_8 -0.3544
    X_0_4_8 Q_4_1_8 -0.449713
    X_0_4_8 Q_4_2_8 -0.624668
    BUY_1_8 COST 85.0473
    BUY_1_8 CB_1_8 1
    INV_1_8 COST 0.2
    INV_1_8 CB_1_8 -1
    INV_1_8 CB_1_9 1
    X_1_0_8 CB_1_8 -1
    X_1_0_8 PB_0_8 1
    X_1_0_8 CAP_8 1
    X_1_0_8 Q_0_0_8 -0.162572
    X_1_0_8 Q_0_1_8 0.0667734
    X_1_0_8 Q_0_2_8 0.028565
    X_1_1_8 CB_1_8 -1
    X_1_1_8 PB_1_8 1
    X_1_1_8 CAP_8 1
    X_1_1_8 Q_1_0_8 -0.264506
    X_1_1_8 Q_1_1_8 0.0402616
    X_1_1_8 Q_1_2_8 0.117346
    X_1_2_8 CB_1_8 -1
    X_1_2_8 PB_2_8 1
    X_1_2_8 CAP_8 1
    X_1_2_8 Q_2_0_8 -0.434595
    X_1_2_8 Q_2_1_8 -0.0797411
    X_1_2_8 Q_2_2_8 -0.162016
    X_1_3_8 CB_1_8 -1
    X_1_3_8 PB_3_8 1
    X_1_3_8 CAP_8 1
    X_1_3_8 Q_3_0_8 -0.141342
    X_1_3_8 Q_3_1_8 -0.275981
    X_1_3_8 Q_3_2_8 -0.259959
    X_1_4_8 CB_1_8 -1
    X_1_4_8 PB_4_8 1
    X_1_4_8 CAP_8 1
    X_1_4_8 Q_4_0_8 -0.112085
    X_1_4_8 Q_4_1_8 0.0209505
    X_1_4_8 Q_4_2_8 -0.197651
    BUY_2_8 COST 57.8488
    BUY_2_8 CB_2_8 1
    INV_2_8 COST 0.2
    INV_2_8 CB_2_8 -1
    INV_2_8 CB_2_9 1
    X_2_0_8 CB_2_8 -1
    X_2_0_8 PB_0_8 1
    X_2_0_8 CAP_8 1
    X_2_0_8 Q_0_0_8 0.214125
    X_2_0_8 Q_0_1_8 0.345397
    X_2_0_8 Q_0_2_8 -0.309285
    X_2_1_8 CB_2_8 -1
    X_2_1_8 PB_1_8 1
    X_2_1_8 CAP_8 1
    X_2_1_8 Q_1_0_8 0.112192
    X_2_1_8 Q_1_1_8 0.318885
    X_2_1_8 Q_1_2_8 -0.220504
    X_2_2_8 CB_2_8 -1
    X_2_2_8 PB_2_8 1
    X_2_2_8 CAP_8 1
    X_2_2_8 Q_2_0_8 -0.0578968
    X_2_2_8 Q_2_1_8 0.198883
    X_2_2_8 Q_2_2_8 -0.499866
    X_2_3_8 CB_2_8 -1
    X_2_3_8 PB_3_8 1
    X_2_3_8 CAP_8 1
    X_2_3_8 Q_3_0_8 0.235356
    X_2_3_8 Q_3_1_8 0.00264265
    X_2_3_8 Q_3_2_8 -0.597809
    X_2_4_8 CB_2_8 -1
    X_2_4_8 PB_4_8 1
    X_2_4_8 CAP_8 1
    X_2_4_8 Q_4_0_8 0.264613
    X_2_4_8 Q_4_1_8 0.299574
    X_2_4_8 Q_4_2_8 -0.535501
    BUY_3_8 COST 81.5164
    BUY_3_8 CB_3_8 1
    INV_3_8 COST 0.2
    INV_3_8 CB_3_8 -1
    INV_3_8 CB_3_9 1
    X_3_0_8 CB_3_8 -1
    X_3_0_8 PB_0_8 1
    X_3_0_8 CAP_8 1
    X_3_0_8 Q_0_0_8 -0.377958
    X_3_0_8 Q_0_1_8 0.390087
    X_3_0_8 Q_0_2_8 0.0126772
    X_3_1_8 CB_3_8 -1
    X_3_1_8 PB_1_8 1
    X_3_1_8 CAP_8 1
    X_3_1_8 Q_1_0_8 -0.479891
    X_3_1_8 Q_1_1_8 0.363575
    X_3_1_8 Q_1_2_8 0.101458
    X_3_2_8 CB_3_8 -1
    X_3_2_8 PB_2_8 1
    X_3_2_8 CAP_8 1
    X_3_2_8 Q_2_0_8 -0.64998
    X_3_2_8 Q_2_1_8 0.243572
    X_3_2_8 Q_2_2_8 -0.177904
    X_3_3_8 CB_3_8 -1
    X_3_3_8 PB_3_8 1
    X_3_3_8 CAP_8 1
    X_3_3_8 Q_3_0_8 -0.356728
    X_3_3_8 Q_3_1_8 0.0473323
    X_3_3_8 Q_3_2_8 -0.275847
    X_3_4_8 CB_3_8 -1
    X_3_4_8 PB_4_8 1
    X_3_4_8 CAP_8 1
    X_3_4_8 Q_4_0_8 -0.32747
    X_3_4_8 Q_4_1_8 0.344264
    X_3_4_8 Q_4_2_8 -0.213539
    BUY_4_8 COST 76.2576
    BUY_4_8 CB_4_8 1
    INV_4_8 COST 0.2
    INV_4_8 CB_4_8 -1
    INV_4_8 CB_4_9 1
    X_4_0_8 CB_4_8 -1
    X_4_0_8 PB_0_8 1
    X_4_0_8 CAP_8 1
    X_4_0_8 Q_0_0_8 0.319278
    X_4_0_8 Q_0_1_8 -0.401889
    X_4_0_8 Q_0_2_8 0.0246664
    X_4_1_8 CB_4_8 -1
    X_4_1_8 PB_1_8 1
    X_4_1_8 CAP_8 1
    X_4_1_8 Q_1_0_8 0.217345
    X_4_1_8 Q_1_1_8 -0.428401
    X_4_1_8 Q_1_2_8 0.113447
    X_4_2_8 CB_4_8 -1
    X_4_2_8 PB_2_8 1
    X_4_2_8 CAP_8 1
    X_4_2_8 Q_2_0_8 0.047256
    X_4_2_8 Q_2_1_8 -0.548404
    X_4_2_8 Q_2_2_8 -0.165915
    X_4_3_8 CB_4_8 -1
    X_4_3_8 PB_3_8 1
    X_4_3_8 CAP_8 1
    X_4_3_8 Q_3_0_8 0.340508
    X_4_3_8 Q_3_1_8 -0.744644
    X_4_3_8 Q_3_2_8 -0.263858
    X_4_4_8 CB_4_8 -1
    X_4_4_8 PB_4_8 1
    X_4_4_8 CAP_8 1
    X_4_4_8 Q_4_0_8 0.369766
    X_4_4_8 Q_4_1_8 -0.447712
    X_4_4_8 Q_4_2_8 -0.20155
    BUY_5_8 COST 55.1141
    BUY_5_8 CB_5_8 1
    INV_5_8 COST 0.2
    INV_5_8 CB_5_8 -1
    INV_5_8 CB_5_9 1
    X_5_0_8 CB_5_8 -1
    X_5_0_8 PB_0_8 1
    X_5_0_8 CAP_8 1
    X_5_0_8 Q_0_0_8 0.280575
    X_5_0_8 Q_0_1_8 -0.186566
    X_5_0_8 Q_0_2_8 0.499556
    X_5_1_8 CB_5_8 -1
    X_5_1_8 PB_1_8 1
    X_5_1_8 CAP_8 1
    X_5_1_8 Q_1_0_8 0.178641
    X_5_1_8 Q_1_1_8 -0.213078
    X_5_1_8 Q_1_2_8 0.588337
    X_5_2_8 CB_5_8 -1
    X_5_2_8 PB_2_8 1
    X_5_2_8 CAP_8 1
    X_5_2_8 Q_2_0_8 0.00855294
    X_5_2_8 Q_2_1_8 -0.33308
    X_5_2_8 Q_2_2_8 0.308975
    X_5_3_8 CB_5_8 -1
    X_5_3_8 PB_3_8 1
    X_5_3_8 CAP_8 1
    X_5_3_8 Q_3_0_8 0.301805
    X_5_3_8 Q_3_1_8 -0.52932
    X_5_3_8 Q_3_2_8 0.211031
    X_5_4_8 CB_5_8 -1
    X_5_4_8 PB_4_8 1
    X_5_4_8 CAP_8 1
    X_5_4_8 Q_4_0_8 0.331063
    X_5_4_8 Q_4_1_8 -0.232389
    X_5_4_8 Q_4_2_8 0.273339
    BUY_6_8 COST 68.1614
    BUY_6_8 CB_6_8 1
    INV_6_8 COST 0.2
    INV_6_8 CB_6_8 -1
    INV_6_8 CB_6_9 1
    X_6_0_8 CB_6_8 -1
    X_6_0_8 PB_0_8 1
    X_6_0_8 CAP_8 1
    X_6_0_8 Q_0_0_8 0.451468
    X_6_0_8 Q_0_1_8 -0.374829
    X_6_0_8 Q_0_2_8 -0.374278
    X_6_1_8 CB_6_8 -1
    X_6_1_8 PB_1_8 1
    X_6_1_8 CAP_8 1
    X_6_1_8 Q_1_0_8 0.349535
    X_6_1_8 Q_1_1_8 -0.401341
    X_6_1_8 Q_1_2_8 -0.285497
    X_6_2_8 CB_6_8 -1
    X_6_2_8 PB_2_8 1
    X_6_2_8 CAP_8 1
    X_6_2_8 Q_2_0_8 0.179446
    X_6_2_8 Q_2_1_8 -0.521344
    X_6_2_8 Q_2_2_8 -0.564859
    X_6_3_8 CB_6_8 -1
    X_6_3_8 PB_3_8 1
    X_6_3_8 CAP_8 1
    X_6_3_8 Q_3_0_8 0.472698
    X_6_3_8 Q_3_1_8 -0.717584
    X_6_3_8 Q_3_2_8 -0.662802
    X_6_4_8 CB_6_8 -1
    X_6_4_8 PB_4_8 1
    X_6_4_8 CAP_8 1
    X_6_4_8 Q_4_0_8 0.501956
    X_6_4_8 Q_4_1_8 -0.420652
    X_6_4_8 Q_4_2_8 -0.600494
    BUY_7_8 COST 91.1518
    BUY_7_8 CB_7_8 1
    INV_7_8 COST 0.2
    INV_7_8 CB_7_8 -1
    INV_7_8 CB_7_9 1
    X_7_0_8 CB_7_8 -1
    X_7_0_8 PB_0_8 1
    X_7_0_8 CAP_8 1
    X_7_0_8 Q_0_0_8 0.109454
    X_7_0_8 Q_0_1_8 0.488302
    X_7_0_8 Q_0_2_8 -0.0363074
    X_7_1_8 CB_7_8 -1
    X_7_1_8 PB_1_8 1
    X_7_1_8 CAP_8 1
    X_7_1_8 Q_1_0_8 0.00752029
    X_7_1_8 Q_1_1_8 0.46179
    X_7_1_8 Q_1_2_8 0.0524737
    X_7_2_8 CB_7_8 -1
    X_7_2_8 PB_2_8 1
    X_7_2_8 CAP_8 1
    X_7_2_8 Q_2_0_8 -0.162568
    X_7_2_8 Q_2_1_8 0.341787
    X_7_2_8 Q_2_2_8 -0.226888
    X_7_3_8 CB_7_8 -1
    X_7_3_8 PB_3_8 1
    X_7_3_8 CAP_8 1
    X_7_3_8 Q_3_0_8 0.130684
    X_7_3_8 Q_3_1_8 0.145547
    X_7_3_8 Q_3_2_8 -0.324832
    X_7_4_8 CB_7_8 -1
    X_7_4_8 PB_4_8 1
    X_7_4_8 CAP_8 1
    X_7_4_8 Q_4_0_8 0.159941
    X_7_4_8 Q_4_1_8 0.442479
    X_7_4_8 Q_4_2_8 -0.262524
    BUY_8_8 COST 74.8723
    BUY_8_8 CB_8_8 1
    INV_8_8 COST 0.2
    INV_8_8 CB_8_8 -1
    INV_8_8 CB_8_9 1
    X_8_0_8 CB_8_8 -1
    X_8_0_8 PB_0_8 1
    X_8_0_8 CAP_8 1
    X_8_0_8 Q_0_0_8 -0.199119
    X_8_0_8 Q_0_1_8 -0.0028792
    X_8_0_8 Q_0_2_8 -0.370863
    X_8_1_8 CB_8_8 -1
    X_8_1_8 PB_1_8 1
    X_8_1_8 CAP_8 1
    X_8_1_8 Q_1_0_8 -0.301052
    X_8_1_8 Q_1_1_8 -0.029391
    X_8_1_8 Q_1_2_8 -0.282082
    X_8_2_8 CB_8_8 -1
    X_8_2_8 PB_2_8 1
    X_8_2_8 CAP_8 1
    X_8_2_8 Q_2_0_8 -0.471141
    X_8_2_8 Q_2_1_8 -0.149394
    X_8_2_8 Q_2_2_8 -0.561444
    X_8_3_8 CB_8_8 -1
    X_8_3_8 PB_3_8 1
    X_8_3_8 CAP_8 1
    X_8_3_8 Q_3_0_8 -0.177888
    X_8_3_8 Q_3_1_8 -0.345634
    X_8_3_8 Q_3_2_8 -0.659387
    X_8_4_8 CB_8_8 -1
    X_8_4_8 PB_4_8 1
    X_8_4_8 CAP_8 1
    X_8_4_8 Q_4_0_8 -0.148631
    X_8_4_8 Q_4_1_8 -0.0487021
    X_8_4_8 Q_4_2_8 -0.597079
    BUY_9_8 COST 70.1906
    BUY_9_8 CB_9_8 1
    INV_9_8 COST 0.2
    INV_9_8 CB_9_8 -1
    INV_9_8 CB_9_9 1
    X_9_0_8 CB_9_8 -1
    X_9_0_8 PB_0_8 1
    X_9_0_8 CAP_8 1
    X_9_0_8 Q_0_0_8 -0.194281
    X_9_0_8 Q_0_1_8 0.0121033
    X_9_0_8 Q_0_2_8 0.0725702
    X_9_1_8 CB_9_8 -1
    X_9_1_8 PB_1_8 1
    X_9_1_8 CAP_8 1
    X_9_1_8 Q_1_0_8 -0.296214
    X_9_1_8 Q_1_1_8 -0.0144085
    X_9_1_8 Q_1_2_8 0.161351
    X_9_2_8 CB_9_8 -1
    X_9_2_8 PB_2_8 1
    X_9_2_8 CAP_8 1
    X_9_2_8 Q_2_0_8 -0.466303
    X_9_2_8 Q_2_1_8 -0.134411
    X_9_2_8 Q_2_2_8 -0.118011
    X_9_3_8 CB_9_8 -1
    X_9_3_8 PB_3_8 1
    X_9_3_8 CAP_8 1
    X_9_3_8 Q_3_0_8 -0.173051
    X_9_3_8 Q_3_1_8 -0.330651
    X_9_3_8 Q_3_2_8 -0.215954
    X_9_4_8 CB_9_8 -1
    X_9_4_8 PB_4_8 1
    X_9_4_8 CAP_8 1
    X_9_4_8 Q_4_0_8 -0.143793
    X_9_4_8 Q_4_1_8 -0.0337196
    X_9_4_8 Q_4_2_8 -0.153646
    SELL_0_8 COST -109.375
    SELL_0_8 PB_0_8 -1
    PINV_0_8 COST 0.5
    PINV_0_8 PB_0_8 -1
    PINV_0_8 PB_0_9 1
    SELL_1_8 COST -73.4593
    SELL_1_8 PB_1_8 -1
    PINV_1_8 COST 0.5
    PINV_1_8 PB_1_8 -1
    PINV_1_8 PB_1_9 1
    SELL_2_8 COST -83.4787
    SELL_2_8 PB_2_8 -1
    PINV_2_8 COST 0.5
    PINV_2_8 PB_2_8 -1
    PINV_2_8 PB_2_9 1
    SELL_3_8 COST -120.63
    SELL_3_8 PB_3_8 -1
    PINV_3_8 COST 0.5
    PINV_3_8 PB_3_8 -1
    PINV_3_8 PB_3_9 1
    SELL_4_8 COST -98.2384
    SELL_4_8 PB_4_8 -1
    PINV_4_8 COST 0.5
    PINV_4_8 PB_4_8 -1
    PINV_4_8 PB_4_9 1
    BUY_0_9 COST 82.5123
    BUY_0_9 CB_0_9 1
    INV_0_9 COST 0.2
    INV_0_9 CB_0_9 -1
    INV_0_9 CB_0_10 1
    X_0_0_9 CB_0_9 -1
    X_0_0_9 PB_0_9 1
    X_0_0_9 CAP_9 1
    X_0_0_9 Q_0_0_9 -0.404888
    X_0_0_9 Q_0_1_9 -0.40389
    X_0_0_9 Q_0_2_9 -0.398451
    X_0_1_9 CB_0_9 -1
    X_0_1_9 PB_1_9 1
    X_0_1_9 CAP_9 1
    X_0_1_9 Q_1_0_9 -0.506822
    X_0_1_9 Q_1_1_9 -0.430402
    X_0_1_9 Q_1_2_9 -0.30967
    X_0_2_9 CB_0_9 -1
    X_0_2_9 PB_2_9 1
    X_0_2_9 CAP_9 1
    X_0_2_9 Q_2_0_9 -0.67691
    X_0_2_9 Q_2_1_9 -0.550404
    X_0_2_9 Q_2_2_9 -0.589032
    X_0_3_9 CB_0_9 -1
    X_0_3_9 PB_3_9 1
    X_0_3_9 CAP_9 1
    X_0_3_9 Q_3_0_9 -0.383658
    X_0_3_9 Q_3_1_9 -0.746645
    X_0_3_9 Q_3_2_9 -0.686976
    X_0_4_9 CB_0_9 -1
    X_0_4_9 PB_4_9 1
    X_0_4_9 CAP_9 1
    X_0_4_9 Q_4_0_9 -0.3544
    X_0_4_9 Q_4_1_9 -0.449713
    X_0_4_9 Q_4_2_9 -0.624668
    BUY_1_9 COST 82.4913
    BUY_1_9 CB_1_9 1
    INV_1_9 COST 0.2
    INV_1_9 CB_1_9 -1
    INV_1_9 CB_1_10 1
    X_1_0_9 CB_1_9 -1
    X_1_0_9 PB_0_9 1
    X_1_0_9 CAP_9 1
    X_1_0_9 Q_0_0_9 -0.162572
    X_1_0_9 Q_0_1_9 0.0667734
    X_1_0_9 Q_0_2_9 0.028565
    X_1_1_9 CB_1_9 -1
    X_1_1_9 PB_1_9 1
    X_1_1_9 CAP_9 1
    X_1_1_9 Q_1_0_9 -0.264506
    X_1_1_9 Q_1_1_9 0.0402616
    X_1_1_9 Q_1_2_9 0.117346
    X_1_2_9 CB_1_9 -1
    X_1_2_9 PB_2_9 1
    X_1_2_9 CAP_9 1
    X_1_2_9 Q_2_0_9 -0.434595
    X_1_2_9 Q_2_1_9 -0.0797411
    X_1_2_9 Q_2_2_9 -0.162016
    X_1_3_9 CB_1_9 -1
    X_1_3_9 PB_3_9 1
    X_1_3_9 CAP_9 1
    X_1_3_9 Q_3_0_9 -0.141342
    X_1_3_9 Q_3_1_9 -0.275981
    X_1_3_9 Q_3_2_9 -0.259959
    X_1_4_9 CB_1_9 -1
    X_1_4_9 PB_4_9 1
    X_1_4_9 CAP_9 1
    X_1_4_9 Q_4_0_9 -0.112085
    X_1_4_9 Q_4_1_9 0.0209505
    X_1_4_9 Q_4_2_9 -0.197651
    BUY_2_9 COST 64.2553
    BUY_2_9 CB_2_9 1
    INV_2_9 COST 0.2
    INV_2_9 CB_2_9 -1
    INV_2_9 CB_2_10 1
    X_2_0_9 CB_2_9 -1
    X_2_0_9 PB_0_9 1
    X_2_0_9 CAP_9 1
    X_2_0_9 Q_0_0_9 0.214125
    X_2_0_9 Q_0_1_9 0.345397
    X_2_0_9 Q_0_2_9 -0.309285
    X_2_1_9 CB_2_9 -1
    X_2_1_9 PB_1_9 1
    X_2_1_9 CAP_9 1
    X_2_1_9 Q_1_0_9 0.112192
    X_2_1_9 Q_1_1_9 0.318885
    X_2_1_9 Q_1_2_9 -0.220504
    X_2_2_9 CB_2_9 -1
    X_2_2_9 PB_2_9 1
    X_2_2_9 CAP_9 1
    X_2_2_9 Q_2_0_9 -0.0578968
    X_2_2_9 Q_2_1_9 0.198883
    X_2_2_9 Q_2_2_9 -0.499866
    X_2_3_9 CB_2_9 -1
    X_2_3_9 PB_3_9 1
    X_2_3_9 CAP_9 1
    X_2_3_9 Q_3_0_9 0.235356
    X_2_3_9 Q_3_1_9 0.00264265
    X_2_3_9 Q_3_2_9 -0.597809
    X_2_4_9 CB_2_9 -1
    X_2_4_9 PB_4_9 1
    X_2_4_9 CAP_9 1
    X_2_4_9 Q_4_0_9 0.264613
    X_2_4_9 Q_4_1_9 0.299574
    X_2_4_9 Q_4_2_9 -0.535501
    BUY_3_9 COST 85.0415
    BUY_3_9 CB_3_9 1
    INV_3_9 COST 0.2
    INV_3_9 CB_3_9 -1
    INV_3_9 CB_3_10 1
    X_3_0_9 CB_3_9 -1
    X_3_0_9 PB_0_9 1
    X_3_0_9 CAP_9 1
    X_3_0_9 Q_0_0_9 -0.377958
    X_3_0_9 Q_0_1_9 0.390087
    X_3_0_9 Q_0_2_9 0.0126772
    X_3_1_9 CB_3_9 -1
    X_3_1_9 PB_1_9 1
    X_3_1_9 CAP_9 1
    X_3_1_9 Q_1_0_9 -0.479891
    X_3_1_9 Q_1_1_9 0.363575
    X_3_1_9 Q_1_2_9 0.101458
    X_3_2_9 CB_3_9 -1
    X_3_2_9 PB_2_9 1
    X_3_2_9 CAP_9 1
    X_3_2_9 Q_2_0_9 -0.64998
    X_3_2_9 Q_2_1_9 0.243572
    X_3_2_9 Q_2_2_9 -0.177904
    X_3_3_9 CB_3_9 -1
    X_3_3_9 PB_3_9 1
    X_3_3_9 CAP_9 1
    X_3_3_9 Q_3_0_9 -0.356728
    X_3_3_9 Q_3_1_9 0.0473323
    X_3_3_9 Q_3_2_9 -0.275847
    X_3_4_9 CB_3_9 -1
    X_3_4_9 PB_4_9 1
    X_3_4_9 CAP_9 1
    X_3_4_9 Q_4_0_9 -0.32747
    X_3_4_9 Q_4_1_9 0.344264
    X_3_4_9 Q_4_2_9 -0.213539
    BUY_4_9 COST 68.5868
    BUY_4_9 CB_4_9 1
    INV_4_9 COST 0.2
    INV_4_9 CB_4_9 -1
    INV_4_9 CB_4_10 1
    X_4_0_9 CB_4_9 -1
    X_4_0_9 PB_0_9 1
    X_4_0_9 CAP_9 1
    X_4_0_9 Q_0_0_9 0.319278
    X_4_0_9 Q_0_1_9 -0.401889
    X_4_0_9 Q_0_2_9 0.0246664
    X_4_1_9 CB_4_9 -1
    X_4_1_9 PB_1_9 1
    X_4_1_9 CAP_9 1
    X_4_1_9 Q_1_0_9 0.217345
    X_4_1_9 Q_1_1_9 -0.428401
    X_4_1_9 Q_1_2_9 0.113447
    X_4_2_9 CB_4_9 -1
    X_4_2_9 PB_2_9 1
    X_4_2_9 CAP_9 1
    X_4_2_9 Q_2_0_9 0.047256
    X_4_2_9 Q_2_1_9 -0.548404
    X_4_2_9 Q_2_2_9 -0.165915
    X_4_3_9 CB_4_9 -1
    X_4_3_9 PB_3_9 1
    X_4_3_9 CAP_9 1
    X_4_3_9 Q_3_0_9 0.340508
    X_4_3_9 Q_3_1_9 -0.744644
    X_4_3_9 Q_3_2_9 -0.263858
    X_4_4_9 CB_4_9 -1
    X_4_4_9 PB_4_9 1
    X_4_4_9 CAP_9 1
    X_4_4_9 Q_4_0_9 0.369766
    X_4_4_9 Q_4_1_9 -0.447712
    X_4_4_9 Q_4_2_9 -0.20155
    BUY_5_9 COST 60.4781
    BUY_5_9 CB_5_9 1
    INV_5_9 COST 0.2
    INV_5_9 CB_5_9 -1
    INV_5_9 CB_5_10 1
    X_5_0_9 CB_5_9 -1
    X_5_0_9 PB_0_9 1
    X_5_0_9 CAP_9 1
    X_5_0_9 Q_0_0_9 0.280575
    X_5_0_9 Q_0_1_9 -0.186566
    X_5_0_9 Q_0_2_9 0.499556
    X_5_1_9 CB_5_9 -1
    X_5_1_9 PB_1_9 1
    X_5_1_9 CAP_9 1
    X_5_1_9 Q_1_0_9 0.178641
    X_5_1_9 Q_1_1_9 -0.213078
    X_5_1_9 Q_1_2_9 0.588337
    X_5_2_9 CB_5_9 -1
    X_5_2_9 PB_2_9 1
    X_5_2_9 CAP_9 1
    X_5_2_9 Q_2_0_9 0.00855294
    X_5_2_9 Q_2_1_9 -0.33308
    X_5_2_9 Q_2_2_9 0.308975
    X_5_3_9 CB_5_9 -1
    X_5_3_9 PB_3_9 1
    X_5_3_9 CAP_9 1
    X_5_3_9 Q_3_0_9 0.301805
    X_5_3_9 Q_3_1_9 -0.52932
    X_5_3_9 Q_3_2_9 0.211031
    X_5_4_9 CB_5_9 -1
    X_5_4_9 PB_4_9 1
    X_5_4_9 CAP_9 1
    X_5_4_9 Q_4_0_9 0.331063
    X_5_4_9 Q_4_1_9 -0.232389
    X_5_4_9 Q_4_2_9 0.273339
    BUY_6_9 COST 66.1533
    BUY_6_9 CB_6_9 1
    INV_6_9 COST 0.2
    INV_6_9 CB_6_9 -1
    INV_6_9 CB_6_10 1
    X_6_0_9 CB_6_9 -1
    X_6_0_9 PB_0_9 1
    X_6_0_9 CAP_9 1
    X_6_0_9 Q_0_0_9 0.451468
    X_6_0_9 Q_0_1_9 -0.374829
    X_6_0_9 Q_0_2_9 -0.374278
    X_6_1_9 CB_6_9 -1
    X_6_1_9 PB_1_9 1
    X_6_1_9 CAP_9 1
    X_6_1_9 Q_1_0_9 0.349535
    X_6_1_9 Q_1_1_9 -0.401341
    X_6_1_9 Q_1_2_9 -0.285497
    X_6_2_9 CB_6_9 -1
    X_6_2_9 PB_2_9 1
    X_6_2_9 CAP_9 1
    X_6_2_9 Q_2_0_9 0.179446
    X_6_2_9 Q_2_1_9 -0.521344
    X_6_2_9 Q_2_2_9 -0.564859
    X_6_3_9 CB_6_9 -1
    X_6_3_9 PB_3_9 1
    X_6_3_9 CAP_9 1
    X_6_3_9 Q_3_0_9 0.472698
    X_6_3_9 Q_3_1_9 -0.717584
    X_6_3_9 Q_3_2_9 -0.662802
    X_6_4_9 CB_6_9 -1
    X_6_4_9 PB_4_9 1
    X_6_4_9 CAP_9 1
    X_6_4_9 Q_4_0_9 0.501956
    X_6_4_9 Q_4_1_9 -0.420652
    X_6_4_9 Q_4_2_9 -0.600494
    BUY_7_9 COST 78.0523
    BUY_7_9 CB_7_9 1
    INV_7_9 COST 0.2
    INV_7_9 CB_7_9 -1
    INV_7_9 CB_7_10 1
    X_7_0_9 CB_7_9 -1
    X_7_0_9 PB_0_9 1
    X_7_0_9 CAP_9 1
    X_7_0_9 Q_0_0_9 0.109454
    X_7_0_9 Q_0_1_9 0.488302
    X_7_0_9 Q_0_2_9 -0.0363074
    X_7_1_9 CB_7_9 -1
    X_7_1_9 PB_1_9 1
    X_7_1_9 CAP_9 1
    X_7_1_9 Q_1_0_9 0.00752029
    X_7_1_9 Q_1_1_9 0.46179
    X_7_1_9 Q_1_2_9 0.0524737
    X_7_2_9 CB_7_9 -1
    X_7_2_9 PB_2_9 1
    X_7_2_9 CAP_9 1
    X_7_2_9 Q_2_0_9 -0.162568
    X_7_2_9 Q_2_1_9 0.341787
    X_7_2_9 Q_2_2_9 -0.226888
    X_7_3_9 CB_7_9 -1
    X_7_3_9 PB_3_9 1
    X_7_3_9 CAP_9 1
    X_7_3_9 Q_3_0_9 0.130684
    X_7_3_9 Q_3_1_9 0.145547
    X_7_3_9 Q_3_2_9 -0.324832
    X_7_4_9 CB_7_9 -1
    X_7_4_9 PB_4_9 1
    X_7_4_9 CAP_9 1
    X_7_4_9 Q_4_0_9 0.159941
    X_7_4_9 Q_4_1_9 0.442479
    X_7_4_9 Q_4_2_9 -0.262524
    BUY_8_9 COST 84.9391
    BUY_8_9 CB_8_9 1
    INV_8_9 COST 0.2
    INV_8_9 CB_8_9 -1
    INV_8_9 CB_8_10 1
    X_8_0_9 CB_8_9 -1
    X_8_0_9 PB_0_9 1
    X_8_0_9 CAP_9 1
    X_8_0_9 Q_0_0_9 -0.199119
    X_8_0_9 Q_0_1_9 -0.0028792
    X_8_0_9 Q_0_2_9 -0.370863
    X_8_1_9 CB_8_9 -1
    X_8_1_9 PB_1_9 1
    X_8_1_9 CAP_9 1
    X_8_1_9 Q_1_0_9 -0.301052
    X_8_1_9 Q_1_1_9 -0.029391
    X_8_1_9 Q_1_2_9 -0.282082
    X_8_2_9 CB_8_9 -1
    X_8_2_9 PB_2_9 1
    X_8_2_9 CAP_9 1
    X_8_2_9 Q_2_0_9 -0.471141
    X_8_2_9 Q_2_1_9 -0.149394
    X_8_2_9 Q_2_2_9 -0.561444
    X_8_3_9 CB_8_9 -1
    X_8_3_9 PB_3_9 1
    X_8_3_9 CAP_9 1
    X_8_3_9 Q_3_0_9 -0.177888
    X_8_3_9 Q_3_1_9 -0.345634
    X_8_3_9 Q_3_2_9 -0.659387
    X_8_4_9 CB_8_9 -1
    X_8_4_9 PB_4_9 1
    X_8_4_9 CAP_9 1
    X_8_4_9 Q_4_0_9 -0.148631
    X_8_4_9 Q_4_1_9 -0.0487021
    X_8_4_9 Q_4_2_9 -0.597079
    BUY_9_9 COST 70.8026
    BUY_9_9 CB_9_9 1
    INV_9_9 COST 0.2
    INV_9_9 CB_9_9 -1
    INV_9_9 CB_9_10 1
    X_9_0_9 CB_9_9 -1
    X_9_0_9 PB_0_9 1
    X_9_0_9 CAP_9 1
    X_9_0_9 Q_0_0_9 -0.194281
    X_9_0_9 Q_0_1_9 0.0121033
    X_9_0_9 Q_0_2_9 0.0725702
    X_9_1_9 CB_9_9 -1
    X_9_1_9 PB_1_9 1
    X_9_1_9 CAP_9 1
    X_9_1_9 Q_1_0_9 -0.296214
    X_9_1_9 Q_1_1_9 -0.0144085
    X_9_1_9 Q_1_2_9 0.161351
    X_9_2_9 CB_9_9 -1
    X_9_2_9 PB_2_9 1
    X_9_2_9 CAP_9 1
    X_9_2_9 Q_2_0_9 -0.466303
    X_9_2_9 Q_2_1_9 -0.134411
    X_9_2_9 Q_2_2_9 -0.118011
    X_9_3_9 CB_9_9 -1
    X_9_3_9 PB_3_9 1
    X_9_3_9 CAP_9 1
    X_9_3_9 Q_3_0_9 -0.173051
    X_9_3_9 Q_3_1_9 -0.330651
    X_9_3_9 Q_3_2_9 -0.215954
    X_9_4_9 CB_9_9 -1
    X_9_4_9 PB_4_9 1
    X_9_4_9 CAP_9 1
    X_9_4_9 Q_4_0_9 -0.143793
    X_9_4_9 Q_4_1_9 -0.0337196
    X_9_4_9 Q_4_2_9 -0.153646
    SELL_0_9 COST -108.529
    SELL_0_9 PB_0_9 -1
    PINV_0_9 COST 0.5
    PINV_0_9 PB_0_9 -1
    PINV_0_9 PB_0_10 1
    SELL_1_9 COST -69.6554
    SELL_1_9 PB_1_9 -1
    PINV_1_9 COST 0.5
    PINV_1_9 PB_1_9 -1
    PINV_1_9 PB_1_10 1
    SELL_2_9 COST -81.4045
    SELL_2_9 PB_2_9 -1
    PINV_2_9 COST 0.5
    PINV_2_9 PB_2_9 -1
    PINV_2_9 PB_2_10 1
    SELL_3_9 COST -123.258
    SELL_3_9 PB_3_9 -1
    PINV_3_9 COST 0.5
    PINV_3_9 PB_3_9 -1
    PINV_3_9 PB_3_10 1
    SELL_4_9 COST -95.8139
    SELL_4_9 PB_4_9 -1
    PINV_4_9 COST 0.5
    PINV_4_9 PB_4_9 -1
    PINV_4_9 PB_4_10 1
    BUY_0_10 COST 69.7882
    BUY_0_10 CB_0_10 1
    INV_0_10 COST 0.2
    INV_0_10 CB_0_10 -1
    INV_0_10 CB_0_11 1
    X_0_0_10 CB_0_10 -1
    X_0_0_10 PB_0_10 1
    X_0_0_10 CAP_10 1
    X_0_0_10 Q_0_0_10 -0.404888
    X_0_0_10 Q_0_1_10 -0.40389
    X_0_0_10 Q_0_2_10 -0.398451
    X_0_1_10 CB_0_10 -1
    X_0_1_10 PB_1_10 1
    X_0_1_10 CAP_10 1
    X_0_1_10 Q_1_0_10 -0.506822
    X_0_1_10 Q_1_1_10 -0.430402
    X_0_1_10 Q_1_2_10 -0.30967
    X_0_2_10 CB_0_10 -1
    X_0_2_10 PB_2_10 1
    X_0_2_10 CAP_10 1
    X_0_2_10 Q_2_0_10 -0.67691
    X_0_2_10 Q_2_1_10 -0.550404
    X_0_2_10 Q_2_2_10 -0.589032
    X_0_3_10 CB_0_10 -1
    X_0_3_10 PB_3_10 1
    X_0_3_10 CAP_10 1
    X_0_3_10 Q_3_0_10 -0.383658
    X_0_3_10 Q_3_1_10 -0.746645
    X_0_3_10 Q_3_2_10 -0.686976
    X_0_4_10 CB_0_10 -1
    X_0_4_10 PB_4_10 1
    X_0_4_10 CAP_10 1
    X_0_4_10 Q_4_0_10 -0.3544
    X_0_4_10 Q_4_1_10 -0.449713
    X_0_4_10 Q_4_2_10 -0.624668
    BUY_1_10 COST 91.1558
    BUY_1_10 CB_1_10 1
    INV_1_10 COST 0.2
    INV_1_10 CB_1_10 -1
    INV_1_10 CB_1_11 1
    X_1_0_10 CB_1_10 -1
    X_1_0_10 PB_0_10 1
    X_1_0_10 CAP_10 1
    X_1_0_10 Q_0_0_10 -0.162572
    X_1_0_10 Q_0_1_10 0.0667734
    X_1_0_10 Q_0_2_10 0.028565
    X_1_1_10 CB_1_10 -1
    X_1_1_10 PB_1_10 1
    X_1_1_10 CAP_10 1
    X_1_1_10 Q_1_0_10 -0.264506
    X_1_1_10 Q_1_1_10 0.0402616
    X_1_1_10 Q_1_2_10 0.117346
    X_1_2_10 CB_1_10 -1
    X_1_2_10 PB_2_10 1
    X_1_2_10 CAP_10 1
    X_1_2_10 Q_2_0_10 -0.434595
    X_1_2_10 Q_2_1_10 -0.0797411
    X_1_2_10 Q_2_2_10 -0.162016
    X_1_3_10 CB_1_10 -1
    X_1_3_10 PB_3_10 1
    X_1_3_10 CAP_10 1
    X_1_3_10 Q_3_0_10 -0.141342
    X_1_3_10 Q_3_1_10 -0.275981
    X_1_3_10 Q_3_2_10 -0.259959
    X_1_4_10 CB_1_10 -1
    X_1_4_10 PB_4_10 1
    X_1_4_10 CAP_10 1
    X_1_4_10 Q_4_0_10 -0.112085
    X_1_4_10 Q_4_1_10 0.0209505
    X_1_4_10 Q_4_2_10 -0.197651
    BUY_2_10 COST 60.3571
    BUY_2_10 CB_2_10 1
    INV_2_10 COST 0.2
    INV_2_10 CB_2_10 -1
    INV_2_10 CB_2_11 1
    X_2_0_10 CB_2_10 -1
    X_2_0_10 PB_0_10 1
    X_2_0_10 CAP_10 1
    X_2_0_10 Q_0_0_10 0.214125
    X_2_0_10 Q_0_1_10 0.345397
    X_2_0_10 Q_0_2_10 -0.309285
    X_2_1_10 CB_2_10 -1
    X_2_1_10 PB_1_10 1
    X_2_1_10 CAP_10 1
    X_2_1_10 Q_1_0_10 0.112192
    X_2_1_10 Q_1_1_10 0.318885
    X_2_1_10 Q_1_2_10 -0.220504
    X_2_2_10 CB_2_10 -1
    X_2_2_10 PB_2_10 1
    X_2_2_10 CAP_10 1
    X_2_2_10 Q_2_0_10 -0.0578968
    X_2_2_10 Q_2_1_10 0.198883
    X_2_2_10 Q_2_2_10 -0.499866
    X_2_3_10 CB_2_10 -1
    X_2_3_10 PB_3_10 1
    X_2_3_10 CAP_10 1
    X_2_3_10 Q_3_0_10 0.235356
    X_2_3_10 Q_3_1_10 0.00264265
    X_2_3_10 Q_3_2_10 -0.597809
    X_2_4_10 CB_2_10 -1
    X_2_4_10 PB_4_10 1
    X_2_4_10 CAP_10 1
    X_2_4_10 Q_4_0_10 0.264613
    X_2_4_10 Q_4_1_10 0.299574
    X_2_4_10 Q_4_2_10 -0.535501
    BUY_3_10 COST 83.2236
    BUY_3_10 CB_3_10 1
    INV_3_10 COST 0.2
    INV_3_10 CB_3_10 -1
    INV_3_10 CB_3_11 1
    X_3_0_10 CB_3_10 -1
    X_3_0_10 PB_0_10 1
    X_3_0_10 CAP_10 1
    X_3_0_10 Q_0_0_10 -0.377958
    X_3_0_10 Q_0_1_10 0.390087
    X_3_0_10 Q_0_2_10 0.0126772
    X_3_1_10 CB_3_10 -1
    X_3_1_10 PB_1_10 1
    X_3_1_10 CAP_10 1
    X_3_1_10 Q_1_0_10 -0.479891
    X_3_1_10 Q_1_1_10 0.363575
    X_3_1_10 Q_1_2_10 0.101458
    X_3_2_10 CB_3_10 -1
    X_3_2_10 PB_2_10 1
    X_3_2_10 CAP_10 1
    X_3_2_10 Q_2_0_10 -0.64998
    X_3_2_10 Q_2_1_10 0.243572
    X_3_2_10 Q_2_2_10 -0.177904
    X_3_3_10 CB_3_10 -1
    X_3_3_10 PB_3_10 1
    X_3_3_10 CAP_10 1
    X_3_3_10 Q_3_0_10 -0.356728
    X_3_3_10 Q_3_1_10 0.0473323
    X_3_3_10 Q_3_2_10 -0.275847
    X_3_4_10 CB_3_10 -1
    X_3_4_10 PB_4_10 1
    X_3_4_10 CAP_10 1
    X_3_4_10 Q_4_0_10 -0.32747
    X_3_4_10 Q_4_1_10 0.344264
    X_3_4_10 Q_4_2_10 -0.213539
    BUY_4_10 COST 70.3509
    BUY_4_10 CB_4_10 1
    INV_4_10 COST 0.2
    INV_4_10 CB_4_10 -1
    INV_4_10 CB_4_11 1
    X_4_0_10 CB_4_10 -1
    X_4_0_10 PB_0_10 1
    X_4_0_10 CAP_10 1
    X_4_0_10 Q_0_0_10 0.319278
    X_4_0_10 Q_0_1_10 -0.401889
    X_4_0_10 Q_0_2_10 0.0246664
    X_4_1_10 CB_4_10 -1
    X_4_1_10 PB_1_10 1
    X_4_1_10 CAP_10 1
    X_4_1_10 Q_1_0_10 0.217345
    X_4_1_10 Q_1_1_10 -0.428401
    X_4_1_10 Q_1_2_10 0.113447
    X_4_2_10 CB_4_10 -1
    X_4_2_10 PB_2_10 1
    X_4_2_10 CAP_10 1
    X_4_2_10 Q_2_0_10 0.047256
    X_4_2_10 Q_2_1_10 -0.548404
    X_4_2_10 Q_2_2_10 -0.165915
    X_4_3_10 CB_4_10 -1
    X_4_3_10 PB_3_10 1
    X_4_3_10 CAP_10 1
    X_4_3_10 Q_3_0_10 0.340508
    X_4_3_10 Q_3_1_10 -0.744644
    X_4_3_10 Q_3_2_10 -0.263858
    X_4_4_10 CB_4_10 -1
    X_4_4_10 PB_4_10 1
    X_4_4_10 CAP_10 1
    X_4_4_10 Q_4_0_10 0.369766
    X_4_4_10 Q_4_1_10 -0.447712
    X_4_4_10 Q_4_2_10 -0.20155
    BUY_5_10 COST 56.1144
    BUY_5_10 CB_5_10 1
    INV_5_10 COST 0.2
    INV_5_10 CB_5_10 -1
    INV_5_10 CB_5_11 1
    X_5_0_10 CB_5_10 -1
    X_5_0_10 PB_0_10 1
    X_5_0_10 CAP_10 1
    X_5_0_10 Q_0_0_10 0.280575
    X_5_0_10 Q_0_1_10 -0.186566
    X_5_0_10 Q_0_2_10 0.499556
    X_5_1_10 CB_5_10 -1
    X_5_1_10 PB_1_10 1
    X_5_1_10 CAP_10 1
    X_5_1_10 Q_1_0_10 0.178641
    X_5_1_10 Q_1_1_10 -0.213078
    X_5_1_10 Q_1_2_10 0.588337
    X_5_2_10 CB_5_10 -1
    X_5_2_10 PB_2_10 1
    X_5_2_10 CAP_10 1
    X_5_2_10 Q_2_0_10 0.00855294
    X_5_2_10 Q_2_1_10 -0.33308
    X_5_2_10 Q_2_2_10 0.308975
    X_5_3_10 CB_5_10 -1
    X_5_3_10 PB_3_10 1
    X_5_3_10 CAP_10 1
    X_5_3_10 Q_3_0_10 0.301805
    X_5_3_10 Q_3_1_10 -0.52932
    X_5_3_10 Q_3_2_10 0.211031
    X_5_4_10 CB_5_10 -1
    X_5_4_10 PB_4_10 1
    X_5_4_10 CAP_10 1
    X_5_4_10 Q_4_0_10 0.331063
    X_5_4_10 Q_4_1_10 -0.232389
    X_5_4_10 Q_4_2_10 0.273339
    BUY_6_10 COST 73.4181
    BUY_6_10 CB_6_10 1
    INV_6_10 COST 0.2
    INV_6_10 CB_6_10 -1
    INV_6_10 CB_6_11 1
    X_6_0_10 CB_6_10 -1
    X_6_0_10 PB_0_10 1
    X_6_0_10 CAP_10 1
    X_6_0_10 Q_0_0_10 0.451468
    X_6_0_10 Q_0_1_10 -0.374829
    X_6_0_10 Q_0_2_10 -0.374278
    X_6_1_10 CB_6_10 -1
    X_6_1_10 PB_1_10 1
    X_6_1_10 CAP_10 1
    X_6_1_10 Q_1_0_10 0.349535
    X_6_1_10 Q_1_1_10 -0.401341
    X_6_1_10 Q_1_2_10 -0.285497
    X_6_2_10 CB_6_10 -1
    X_6_2_10 PB_2_10 1
    X_6_2_10 CAP_10 1
    X_6_2_10 Q_2_0_10 0.179446
    X_6_2_10 Q_2_1_10 -0.521344
    X_6_2_10 Q_2_2_10 -0.564859
    X_6_3_10 CB_6_10 -1
    X_6_3_10 PB_3_10 1
    X_6_3_10 CAP_10 1
    X_6_3_10 Q_3_0_10 0.472698
    X_6_3_10 Q_3_1_10 -0.717584
    X_6_3_10 Q_3_2_10 -0.662802
    X_6_4_10 CB_6_10 -1
    X_6_4_10 PB_4_10 1
    X_6_4_10 CAP_10 1
    X_6_4_10 Q_4_0_10 0.501956
    X_6_4_10 Q_4_1_10 -0.420652
    X_6_4_10 Q_4_2_10 -0.600494
    BUY_7_10 COST 84.8874
    BUY_7_10 CB_7_10 1
    INV_7_10 COST 0.2
    INV_7_10 CB_7_10 -1
    INV_7_10 CB_7_11 1
    X_7_0_10 CB_7_10 -1
    X_7_0_10 PB_0_10 1
    X_7_0_10 CAP_10 1
    X_7_0_10 Q_0_0_10 0.109454
    X_7_0_10 Q_0_1_10 0.488302
    X_7_0_10 Q_0_2_10 -0.0363074
    X_7_1_10 CB_7_10 -1
    X_7_1_10 PB_1_10 1
    X_7_1_10 CAP_10 1
    X_7_1_10 Q_1_0_10 0.00752029
    X_7_1_10 Q_1_1_10 0.46179
    X_7_1_10 Q_1_2_10 0.0524737
    X_7_2_10 CB_7_10 -1
    X_7_2_10 PB_2_10 1
    X_7_2_10 CAP_10 1
    X_7_2_10 Q_2_0_10 -0.162568
    X_7_2_10 Q_2_1_10 0.341787
    X_7_2_10 Q_2_2_10 -0.226888
    X_7_3_10 CB_7_10 -1
    X_7_3_10 PB_3_10 1
    X_7_3_10 CAP_10 1
    X_7_3_10 Q_3_0_10 0.130684
    X_7_3_10 Q_3_1_10 0.145547
    X_7_3_10 Q_3_2_10 -0.324832
    X_7_4_10 CB_7_10 -1
    X_7_4_10 PB_4_10 1
    X_7_4_10 CAP_10 1
    X_7_4_10 Q_4_0_10 0.159941
    X_7_4_10 Q_4_1_10 0.442479
    X_7_4_10 Q_4_2_10 -0.262524
    BUY_8_10 COST 86.7393
    BUY_8_10 CB_8_10 1
    INV_8_10 COST 0.2
    INV_8_10 CB_8_10 -1
    INV_8_10 CB_8_11 1
    X_8_0_10 CB_8_10 -1
    X_8_0_10 PB_0_10 1
    X_8_0_10 CAP_10 1
    X_8_0_10 Q_0_0_10 -0.199119
    X_8_0_10 Q_0_1_10 -0.0028792
    X_8_0_10 Q_0_2_10 -0.370863
    X_8_1_10 CB_8_10 -1
    X_8_1_10 PB_1_10 1
    X_8_1_10 CAP_10 1
    X_8_1_10 Q_1_0_10 -0.301052
    X_8_1_10 Q_1_1_10 -0.029391
    X_8_1_10 Q_1_2_10 -0.282082
    X_8_2_10 CB_8_10 -1
    X_8_2_10 PB_2_10 1
    X_8_2_10 CAP_10 1
    X_8_2_10 Q_2_0_10 -0.471141
    X_8_2_10 Q_2_1_10 -0.149394
    X_8_2_10 Q_2_2_10 -0.561444
    X_8_3_10 CB_8_10 -1
    X_8_3_10 PB_3_10 1
    X_8_3_10 CAP_10 1
    X_8_3_10 Q_3_0_10 -0.177888
    X_8_3_10 Q_3_1_10 -0.345634
    X_8_3_10 Q_3_2_10 -0.659387
    X_8_4_10 CB_8_10 -1
    X_8_4_10 PB_4_10 1
    X_8_4_10 CAP_10 1
    X_8_4_10 Q_4_0_10 -0.148631
    X_8_4_10 Q_4_1_10 -0.0487021
    X_8_4_10 Q_4_2_10 -0.597079
    BUY_9_10 COST 62.4454
    BUY_9_10 CB_9_10 1
    INV_9_10 COST 0.2
    INV_9_10 CB_9_10 -1
    INV_9_10 CB_9_11 1
    X_9_0_10 CB_9_10 -1
    X_9_0_10 PB_0_10 1
    X_9_0_10 CAP_10 1
    X_9_0_10 Q_0_0_10 -0.194281
    X_9_0_10 Q_0_1_10 0.0121033
    X_9_0_10 Q_0_2_10 0.0725702
    X_9_1_10 CB_9_10 -1
    X_9_1_10 PB_1_10 1
    X_9_1_10 CAP_10 1
    X_9_1_10 Q_1_0_10 -0.296214
    X_9_1_10 Q_1_1_10 -0.0144085
    X_9_1_10 Q_1_2_10 0.161351
    X_9_2_10 CB_9_10 -1
    X_9_2_10 PB_2_10 1
    X_9_2_10 CAP_10 1
    X_9_2_10 Q_2_0_10 -0.466303
    X_9_2_10 Q_2_1_10 -0.134411
    X_9_2_10 Q_2_2_10 -0.118011
    X_9_3_10 CB_9_10 -1
    X_9_3_10 PB_3_10 1
    X_9_3_10 CAP_10 1
    X_9_3_10 Q_3_0_10 -0.173051
    X_9_3_10 Q_3_1_10 -0.330651
    X_9_3_10 Q_3_2_10 -0.215954
    X_9_4_10 CB_9_10 -1
    X_9_4_10 PB_4_10 1
    X_9_4_10 CAP_10 1
    X_9_4_10 Q_4_0_10 -0.143793
    X_9_4_10 Q_4_1_10 -0.0337196
    X_9_4_10 Q_4_2_10 -0.153646
    SELL_0_10 COST -101.317
    SELL_0_10 PB_0_10 -1
    PINV_0_10 COST 0.5
    PINV_0_10 PB_0_10 -1
    PINV_0_10 PB_0_11 1
    SELL_1_10 COST -72.3979
    SELL_1_10 PB_1_10 -1
    PINV_1_10 COST 0.5
    PINV_1_10 PB_1_10 -1
    PINV_1_10 PB_1_11 1
    SELL_2_10 COST -86.7721
    SELL_2_10 PB_2_10 -1
    PINV_2_10 COST 0.5
    PINV_2_10 PB_2_10 -1
    PINV_2_10 PB_2_11 1
    SELL_3_10 COST -113.562
    SELL_3_10 PB_3_10 -1
    PINV_3_10 COST 0.5
    PINV_3_10 PB_3_10 -1
    PINV_3_10 PB_3_11 1
    SELL_4_10 COST -95.5473
    SELL_4_10 PB_4_10 -1
    PINV_4_10 COST 0.5
    PINV_4_10 PB_4_10 -1
    PINV_4_10 PB_4_11 1
    BUY_0_11 COST 75.6054
    BUY_0_11 CB_0_11 1
    INV_0_11 COST 0.2
    INV_0_11 CB_0_11 -1
    X_0_0_11 CB_0_11 -1
    X_0_0_11 PB_0_11 1
    X_0_0_11 CAP_11 1
    X_0_0_11 Q_0_0_11 -0.404888
    X_0_0_11 Q_0_1_11 -0.40389
    X_0_0_11 Q_0_2_11 -0.398451
    X_0_1_11 CB_0_11 -1
    X_0_1_11 PB_1_11 1
    X_0_1_11 CAP_11 1
    X_0_1_11 Q_1_0_11 -0.506822
    X_0_1_11 Q_1_1_11 -0.430402
    X_0_1_11 Q_1_2_11 -0.30967
    X_0_2_11 CB_0_11 -1
    X_0_2_11 PB_2_11 1
    X_0_2_11 CAP_11 1
    X_0_2_11 Q_2_0_11 -0.67691
    X_0_2_11 Q_2_1_11 -0.550404
    X_0_2_11 Q_2_2_11 -0.589032
    X_0_3_11 CB_0_11 -1
    X_0_3_11 PB_3_11 1
    X_0_3_11 CAP_11 1
    X_0_3_11 Q_3_0_11 -0.383658
    X_0_3_11 Q_3_1_11 -0.746645
    X_0_3_11 Q_3_2_11 -0.686976
    X_0_4_11 CB_0_11 -1
    X_0_4_11 PB_4_11 1
    X_0_4_11 CAP_11 1
    X_0_4_11 Q_4_0_11 -0.3544
    X_0_4_11 Q_4_1_11 -0.449713
    X_0_4_11 Q_4_2_11 -0.624668
    BUY_1_11 COST 78.1545
    BUY_1_11 CB_1_11 1
    INV_1_11 COST 0.2
    INV_1_11 CB_1_11 -1
    X_1_0_11 CB_1_11 -1
    X_1_0_11 PB_0_11 1
    X_1_0_11 CAP_11 1
    X_1_0_11 Q_0_0_11 -0.162572
    X_1_0_11 Q_0_1_11 0.0667734
    X_1_0_11 Q_0_2_11 0.028565
    X_1_1_11 CB_1_11 -1
    X_1_1_11 PB_1_11 1
    X_1_1_11 CAP_11 1
    X_1_1_11 Q_1_0_11 -0.264506
    X_1_1_11 Q_1_1_11 0.0402616
    X_1_1_11 Q_1_2_11 0.117346
    X_1_2_11 CB_1_11 -1
    X_1_2_11 PB_2_11 1
    X_1_2_11 CAP_11 1
    X_1_2_11 Q_2_0_11 -0.434595
    X_1_2_11 Q_2_1_11 -0.0797411
    X_1_2_11 Q_2_2_11 -0.162016
    X_1_3_11 CB_1_11 -1
    X_1_3_11 PB_3_11 1
    X_1_3_11 CAP_11 1
    X_1_3_11 Q_3_0_11 -0.141342
    X_1_3_11 Q_3_1_11 -0.275981
    X_1_3_11 Q_3_2_11 -0.259959
    X_1_4_11 CB_1_11 -1
    X_1_4_11 PB_4_11 1
    X_1_4_11 CAP_11 1
    X_1_4_11 Q_4_0_11 -0.112085
    X_1_4_11 Q_4_1_11 0.0209505
    X_1_4_11 Q_4_2_11 -0.197651
    BUY_2_11 COST 58.7198
    BUY_2_11 CB_2_11 1
    INV_2_11 COST 0.2
    INV_2_11 CB_2_11 -1
    X_2_0_11 CB_2_11 -1
    X_2_0_11 PB_0_11 1
    X_2_0_11 CAP_11 1
    X_2_0_11 Q_0_0_11 0.214125
    X_2_0_11 Q_0_1_11 0.345397
    X_2_0_11 Q_0_2_11 -0.309285
    X_2_1_11 CB_2_11 -1
    X_2_1_11 PB_1_11 1
    X_2_1_11 CAP_11 1
    X_2_1_11 Q_1_0_11 0.112192
    X_2_1_11 Q_1_1_11 0.318885
    X_2_1_11 Q_1_2_11 -0.220504
    X_2_2_11 CB_2_11 -1
    X_2_2_11 PB_2_11 1
    X_2_2_11 CAP_11 1
    X_2_2_11 Q_2_0_11 -0.0578968
    X_2_2_11 Q_2_1_11 0.198883
    X_2_2_11 Q_2_2_11 -0.499866
    X_2_3_11 CB_2_11 -1
    X_2_3_11 PB_3_11 1
    X_2_3_11 CAP_11 1
    X_2_3_11 Q_3_0_11 0.235356
    X_2_3_11 Q_3_1_11 0.00264265
    X_2_3_11 Q_3_2_11 -0.597809
    X_2_4_11 CB_2_11 -1
    X_2_4_11 PB_4_11 1
    X_2_4_11 CAP_11 1
    X_2_4_11 Q_4_0_11 0.264613
    X_2_4_11 Q_4_1_11 0.299574
    X_2_4_11 Q_4_2_11 -0.535501
    BUY_3_11 COST 84.4915
    BUY_3_11 CB_3_11 1
    INV_3_11 COST 0.2
    INV_3_11 CB_3_11 -1
    X_3_0_11 CB_3_11 -1
    X_3_0_11 PB_0_11 1
    X_3_0_11 CAP_11 1
    X_3_0_11 Q_0_0_11 -0.377958
    X_3_0_11 Q_0_1_11 0.390087
    X_3_0_11 Q_0_2_11 0.0126772
    X_3_1_11 CB_3_11 -1
    X_3_1_11 PB_1_11 1
    X_3_1_11 CAP_11 1
    X_3_1_11 Q_1_0_11 -0.479891
    X_3_1_11 Q_1_1_11 0.363575
    X_3_1_11 Q_1_2_11 0.101458
    X_3_2_11 CB_3_11 -1
    X_3_2_11 PB_2_11 1
    X_3_2_11 CAP_11 1
    X_3_2_11 Q_2_0_11 -0.64998
    X_3_2_11 Q_2_1_11 0.243572
    X_3_2_11 Q_2_2_11 -0.177904
    X_3_3_11 CB_3_11 -1
    X_3_3_11 PB_3_11 1
    X_3_3_11 CAP_11 1
    X_3_3_11 Q_3_0_11 -0.356728
    X_3_3_11 Q_3_1_11 0.0473323
    X_3_3_11 Q_3_2_11 -0.275847
    X_3_4_11 CB_3_11 -1
    X_3_4_11 PB_4_11 1
    X_3_4_11 CAP_11 1
    X_3_4_11 Q_4_0_11 -0.32747
    X_3_4_11 Q_4_1_11 0.344264
    X_3_4_11 Q_4_2_11 -0.213539
    BUY_4_11 COST 71.715
    BUY_4_11 CB_4_11 1
    INV_4_11 COST 0.2
    INV_4_11 CB_4_11 -1
    X_4_0_11 CB_4_11 -1
    X_4_0_11 PB_0_11 1
    X_4_0_11 CAP_11 1
    X_4_0_11 Q_0_0_11 0.319278
    X_4_0_11 Q_0_1_11 -0.401889
    X_4_0_11 Q_0_2_11 0.0246664
    X_4_1_11 CB_4_11 -1
    X_4_1_11 PB_1_11 1
    X_4_1_11 CAP_11 1
    X_4_1_11 Q_1_0_11 0.217345
    X_4_1_11 Q_1_1_11 -0.428401
    X_4_1_11 Q_1_2_11 0.113447
    X_4_2_11 CB_4_11 -1
    X_4_2_11 PB_2_11 1
    X_4_2_11 CAP_11 1
    X_4_2_11 Q_2_0_11 0.047256
    X_4_2_11 Q_2_1_11 -0.548404
    X_4_2_11 Q_2_2_11 -0.165915
    X_4_3_11 CB_4_11 -1
    X_4_3_11 PB_3_11 1
    X_4_3_11 CAP_11 1
    X_4_3_11 Q_3_0_11 0.340508
    X_4_3_11 Q_3_1_11 -0.744644
    X_4_3_11 Q_3_2_11 -0.263858
    X_4_4_11 CB_4_11 -1
    X_4_4_11 PB_4_11 1
    X_4_4_11 CAP_11 1
    X_4_4_11 Q_4_0_11 0.369766
    X_4_4_11 Q_4_1_11 -0.447712
    X_4_4_11 Q_4_2_11 -0.20155
    BUY_5_11 COST 52.7148
    BUY_5_11 CB_5_11 1
    INV_5_11 COST 0.2
    INV_5_11 CB_5_11 -1
    X_5_0_11 CB_5_11 -1
    X_5_0_11 PB_0_11 1
    X_5_0_11 CAP_11 1
    X_5_0_11 Q_0_0_11 0.280575
    X_5_0_11 Q_0_1_11 -0.186566
    X_5_0_11 Q_0_2_11 0.499556
    X_5_1_11 CB_5_11 -1
    X_5_1_11 PB_1_11 1
    X_5_1_11 CAP_11 1
    X_5_1_11 Q_1_0_11 0.178641
    X_5_1_11 Q_1_1_11 -0.213078
    X_5_1_11 Q_1_2_11 0.588337
    X_5_2_11 CB_5_11 -1
    X_5_2_11 PB_2_11 1
    X_5_2_11 CAP_11 1
    X_5_2_11 Q_2_0_11 0.00855294
    X_5_2_11 Q_2_1_11 -0.33308
    X_5_2_11 Q_2_2_11 0.308975
    X_5_3_11 CB_5_11 -1
    X_5_3_11 PB_3_11 1
    X_5_3_11 CAP_11 1
    X_5_3_11 Q_3_0_11 0.301805
    X_5_3_11 Q_3_1_11 -0.52932
    X_5_3_11 Q_3_2_11 0.211031
    X_5_4_11 CB_5_11 -1
    X_5_4_11 PB_4_11 1
    X_5_4_11 CAP_11 1
    X_5_4_11 Q_4_0_11 0.331063
    X_5_4_11 Q_4_1_11 -0.232389
    X_5_4_11 Q_4_2_11 0.273339
    BUY_6_11 COST 73.95
    BUY_6_11 CB_6_11 1
    INV_6_11 COST 0.2
    INV_6_11 CB_6_11 -1
    X_6_0_11 CB_6_11 -1
    X_6_0_11 PB_0_11 1
    X_6_0_11 CAP_11 1
    X_6_0_11 Q_0_0_11 0.451468
    X_6_0_11 Q_0_1_11 -0.374829
    X_6_0_11 Q_0_2_11 -0.374278
    X_6_1_11 CB_6_11 -1
    X_6_1_11 PB_1_11 1
    X_6_1_11 CAP_11 1
    X_6_1_11 Q_1_0_11 0.349535
    X_6_1_11 Q_1_1_11 -0.401341
    X_6_1_11 Q_1_2_11 -0.285497
    X_6_2_11 CB_6_11 -1
    X_6_2_11 PB_2_11 1
    X_6_2_11 CAP_11 1
    X_6_2_11 Q_2_0_11 0.179446
    X_6_2_11 Q_2_1_11 -0.521344
    X_6_2_11 Q_2_2_11 -0.564859
    X_6_3_11 CB_6_11 -1
    X_6_3_11 PB_3_11 1
    X_6_3_11 CAP_11 1
    X_6_3_11 Q_3_0_11 0.472698
    X_6_3_11 Q_3_1_11 -0.717584
    X_6_3_11 Q_3_2_11 -0.662802
    X_6_4_11 CB_6_11 -1
    X_6_4_11 PB_4_11 1
    X_6_4_11 CAP_11 1
    X_6_4_11 Q_4_0_11 0.501956
    X_6_4_11 Q_4_1_11 -0.420652
    X_6_4_11 Q_4_2_11 -0.600494
    BUY_7_11 COST 83.4776
    BUY_7_11 CB_7_11 1
    INV_7_11 COST 0.2
    INV_7_11 CB_7_11 -1
    X_7_0_11 CB_7_11 -1
    X_7_0_11 PB_0_11 1
    X_7_0_11 CAP_11 1
    X_7_0_11 Q_0_0_11 0.109454
    X_7_0_11 Q_0_1_11 0.488302
    X_7_0_11 Q_0_2_11 -0.0363074
    X_7_1_11 CB_7_11 -1
    X_7_1_11 PB_1_11 1
    X_7_1_11 CAP_11 1
    X_7_1_11 Q_1_0_11 0.00752029
    X_7_1_11 Q_1_1_11 0.46179
    X_7_1_11 Q_1_2_11 0.0524737
    X_7_2_11 CB_7_11 -1
    X_7_2_11 PB_2_11 1
    X_7_2_11 CAP_11 1
    X_7_2_11 Q_2_0_11 -0.162568
    X_7_2_11 Q_2_1_11 0.341787
    X_7_2_11 Q_2_2_11 -0.226888
    X_7_3_11 CB_7_11 -1
    X_7_3_11 PB_3_11 1
    X_7_3_11 CAP_11 1
    X_7_3_11 Q_3_0_11 0.130684
    X_7_3_11 Q_3_1_11 0.145547
    X_7_3_11 Q_3_2_11 -0.324832
    X_7_4_11 CB_7_11 -1
    X_7_4_11 PB_4_11 1
    X_7_4_11 CAP_11 1
    X_7_4_11 Q_4_0_11 0.159941
    X_7_4_11 Q_4_1_11 0.442479
    X_7_4_11 Q_4_2_11 -0.262524
    BUY_8_11 COST 86.337
    BUY_8_11 CB_8_11 1
    INV_8_11 COST 0.2
    INV_8_11 CB_8_11 -1
    X_8_0_11 CB_8_11 -1
    X_8_0_11 PB_0_11 1
    X_8_0_11 CAP_11 1
    X_8_0_11 Q_0_0_11 -0.199119
    X_8_0_11 Q_0_1_11 -0.0028792
    X_8_0_11 Q_0_2_11 -0.370863
    X_8_1_11 CB_8_11 -1
    X_8_1_11 PB_1_11 1
    X_8_1_11 CAP_11 1
    X_8_1_11 Q_1_0_11 -0.301052
    X_8_1_11 Q_1_1_11 -0.029391
    X_8_1_11 Q_1_2_11 -0.282082
    X_8_2_11 CB_8_11 -1
    X_8_2_11 PB_2_11 1
    X_8_2_11 CAP_11 1
    X_8_2_11 Q_2_0_11 -0.471141
    X_8_2_11 Q_2_1_11 -0.149394
    X_8_2_11 Q_2_2_11 -0.561444
    X_8_3_11 CB_8_11 -1
    X_8_3_11 PB_3_11 1
    X_8_3_11 CAP_11 1
    X_8_3_11 Q_3_0_11 -0.177888
    X_8_3_11 Q_3_1_11 -0.345634
    X_8_3_11 Q_3_2_11 -0.659387
    X_8_4_11 CB_8_11 -1
    X_8_4_11 PB_4_11 1
    X_8_4_11 CAP_11 1
    X_8_4_11 Q_4_0_11 -0.148631
    X_8_4_11 Q_4_1_11 -0.0487021
    X_8_4_11 Q_4_2_11 -0.597079
    BUY_9_11 COST 60.9608
    BUY_9_11 CB_9_11 1
    INV_9_11 COST 0.2
    INV_9_11 CB_9_11 -1
    X_9_0_11 CB_9_11 -1
    X_9_0_11 PB_0_11 1
    X_9_0_11 CAP_11 1
    X_9_0_11 Q_0_0_11 -0.194281
    X_9_0_11 Q_0_1_11 0.0121033
    X_9_0_11 Q_0_2_11 0.0725702
    X_9_1_11 CB_9_11 -1
    X_9_1_11 PB_1_11 1
    X_9_1_11 CAP_11 1
    X_9_1_11 Q_1_0_11 -0.296214
    X_9_1_11 Q_1_1_11 -0.0144085
    X_9_1_11 Q_1_2_11 0.161351
    X_9_2_11 CB_9_11 -1
    X_9_2_11 PB_2_11 1
    X_9_2_11 CAP_11 1
    X_9_2_11 Q_2_0_11 -0.466303
    X_9_2_11 Q_2_1_11 -0.134411
    X_9_2_11 Q_2_2_11 -0.118011
    X_9_3_11 CB_9_11 -1
    X_9_3_11 PB_3_11 1
    X_9_3_11 CAP_11 1
    X_9_3_11 Q_3_0_11 -0.173051
    X_9_3_11 Q_3_1_11 -0.330651
    X_9_3_11 Q_3_2_11 -0.215954
    X_9_4_11 CB_9_11 -1
    X_9_4_11 PB_4_11 1
    X_9_4_11 CAP_11 1
    X_9_4_11 Q_4_0_11 -0.143793
    X_9_4_11 Q_4_1_11 -0.0337196
    X_9_4_11 Q_4_2_11 -0.153646
    SELL_0_11 COST -103.859
    SELL_0_11 PB_0_11 -1
    PINV_0_11 COST 0.5
    PINV_0_11 PB_0_11 -1
    SELL_1_11 COST -71.2727
    SELL_1_11 PB_1_11 -1
    PINV_1_11 COST 0.5
    PINV_1_11 PB_1_11 -1
    SELL_2_11 COST -83.7632
    SELL_2_11 PB_2_11 -1
    PINV_2_11 COST 0.5
    PINV_2_11 PB_2_11 -1
    SELL_3_11 COST -118.839
    SELL_3_11 PB_3_11 -1
    PINV_3_11 COST 0.5
    PINV_3_11 PB_3_11 -1
    SELL_4_11 COST -98.6334
    SELL_4_11 PB_4_11 -1
    PINV_4_11 COST 0.5
    PINV_4_11 PB_4_11 -1
RHS
    RHS CAP_0 5000
    RHS CAP_1 5000
    RHS CAP_2 5000
    RHS CAP_3 5000
    RHS CAP_4 5000
    RHS CAP_5 5000
    RHS CAP_6 5000
    RHS CAP_7 5000
    RHS CAP_8 5000
    RHS CAP_9 5000
    RHS CAP_10 5000
    RHS CAP_11 5000
BOUNDS
 UP BND BUY_0_0 913.438
 UP BND INV_0_0 5000
 UP BND BUY_1_0 687.114
 UP BND INV_1_0 5000
 UP BND BUY_2_0 1211.98
 UP BND INV_2_0 5000
 UP BND BUY_3_0 836.602
 UP BND INV_3_0 5000
 UP BND BUY_4_0 1114.4
 UP BND INV_4_0 5000
 UP BND BUY_5_0 711.68
 UP BND INV_5_0 5000
 UP BND BUY_6_0 1476.7
 UP BND INV_6_0 5000
 UP BND BUY_7_0 1318.38
 UP BND INV_7_0 5000
 UP BND BUY_8_0 1438.21
 UP BND INV_8_0 5000
 UP BND BUY_9_0 550.063
 UP BND INV_9_0 5000
 UP BND SELL_0_0 305.138
 UP BND PINV_0_0 3000
 UP BND SELL_1_0 1038.44
 UP BND PINV_1_0 3000
 UP BND SELL_2_0 966.453
 UP BND PINV_2_0 3000
 UP BND SELL_3_0 766.81
 UP BND PINV_3_0 3000
 UP BND SELL_4_0 683.482
 UP BND PINV_4_0 3000
 UP BND BUY_0_1 1331.01
 UP BND INV_0_1 5000
 UP BND BUY_1_1 856.137
 UP BND INV_1_1 5000
 UP BND BUY_2_1 649.901
 UP BND INV_2_1 5000
 UP BND BUY_3_1 996.188
 UP BND INV_3_1 5000
 UP BND BUY_4_1 498.487
 UP BND INV_4_1 5000
 UP BND BUY_5_1 1319.31
 UP BND INV_5_1 5000
 UP BND BUY_6_1 1261.37
 UP BND INV_6_1 5000
 UP BND BUY_7_1 1075.05
 UP BND INV_7_1 5000
 UP BND BUY_8_1 218.928
 UP BND INV_8_1 5000
 UP BND BUY_9_1 342.335
 UP BND INV_9_1 5000
 UP BND SELL_0_1 362.564
 UP BND PINV_0_1 3000
 UP BND SELL_1_1 774.642
 UP BND PINV_1_1 3000
 UP BND SELL_2_1 545.623
 UP BND PINV_2_1 3000
 UP BND SELL_3_1 709.231
 UP BND PINV_3_1 3000
 UP BND SELL_4_1 726.394
 UP BND PINV_4_1 3000
 UP BND BUY_0_2 702.524
 UP BND INV_0_2 5000
 UP BND BUY_1_2 341.39
 UP BND INV_1_2 5000
 UP BND BUY_2_2 471.818
 UP BND INV_2_2 5000
 UP BND BUY_3_2 227.064
 UP BND INV_3_2 5000
 UP BND BUY_4_2 1134.49
 UP BND INV_4_2 5000
 UP BND BUY_5_2 1081.63
 UP BND INV_5_2 5000
 UP BND BUY_6_2 1468.27
 UP BND INV_6_2 5000
 UP BND BUY_7_2 490.155
 UP BND INV_7_2 5000
 UP BND BUY_8_2 948.6
 UP BND INV_8_2 5000
 UP BND BUY_9_2 276.421
 UP BND INV_9_2 5000
 UP BND SELL_0_2 1087.98
 UP BND PINV_0_2 3000
 UP BND SELL_1_2 1072.66
 UP BND PINV_1_2 3000
 UP BND SELL_2_2 1145.36
 UP BND PINV_2_2 3000
 UP BND SELL_3_2 674.555
 UP BND PINV_3_2 3000
 UP BND SELL_4_2 307.632
 UP BND PINV_4_2 3000
 UP BND BUY_0_3 249.291
 UP BND INV_0_3 5000
 UP BND BUY_1_3 941.365
 UP BND INV_1_3 5000
 UP BND BUY_2_3 1465.91
 UP BND INV_2_3 5000
 UP BND BUY_3_3 691.359
 UP BND INV_3_3 5000
 UP BND BUY_4_3 1076.4
 UP BND INV_4_3 5000
 UP BND BUY_5_3 335.751
 UP BND INV_5_3 5000
 UP BND BUY_6_3 849.74
 UP BND INV_6_3 5000
 UP BND BUY_7_3 1369.58
 UP BND INV_7_3 5000
 UP BND BUY_8_3 626.063
 UP BND INV_8_3 5000
 UP BND BUY_9_3 640.824
 UP BND INV_9_3 5000
 UP BND SELL_0_3 1053.93
 UP BND PINV_0_3 3000
 UP BND SELL_1_3 609.465
 UP BND PINV_1_3 3000
 UP BND SELL_2_3 918.399
 UP BND PINV_2_3 3000
 UP BND SELL_3_3 1186.96
 UP BND PINV_3_3 3000
 UP BND SELL_4_3 952.919
 UP BND PINV_4_3 3000
 UP BND BUY_0_4 420.602
 UP BND INV_0_4 5000
 UP BND BUY_1_4 1186.85
 UP BND INV_1_4 5000
 UP BND BUY_2_4 678.54
 UP BND INV_2_4 5000
 UP BND BUY_3_4 1327.65
 UP BND INV_3_4 5000
 UP BND BUY_4_4 1353.44
 UP BND INV_4_4 5000
 UP BND BUY_5_4 335.557
 UP BND INV_5_4 5000
 UP BND BUY_6_4 1326.02
 UP BND INV_6_4 5000
 UP BND BUY_7_4 643.167
 UP BND INV_7_4 5000
 UP BND BUY_8_4 691.452
 UP BND INV_8_4 5000
 UP BND BUY_9_4 306.266
 UP BND INV_9_4 5000
 UP BND SELL_0_4 808.002
 UP BND PINV_0_4 3000
 UP BND SELL_1_4 711.992
 UP BND PINV_1_4 3000
 UP BND SELL_2_4 1008.31
 UP BND PINV_2_4 3000
 UP BND SELL_3_4 311.144
 UP BND PINV_3_4 3000
 UP BND SELL_4_4 382.515
 UP BND PINV_4_4 3000
 UP BND BUY_0_5 1350.58
 UP BND INV_0_5 5000
 UP BND BUY_1_5 1484.61
 UP BND INV_1_5 5000
 UP BND BUY_2_5 417.598
 UP BND INV_2_5 5000
 UP BND BUY_3_5 333.684
 UP BND INV_3_5 5000
 UP BND BUY_4_5 1461.34
 UP BND INV_4_5 5000
 UP BND BUY_5_5 529.433
 UP BND INV_5_5 5000
 UP BND BUY_6_5 1047.67
 UP BND INV_6_5 5000
 UP BND BUY_7_5 1477.36
 UP BND INV_7_5 5000
 UP BND BUY_8_5 784.798
 UP BND INV_8_5 5000
 UP BND BUY_9_5 1387.41
 UP BND INV_9_5 5000
 UP BND SELL_0_5 400.226
 UP BND PINV_0_5 3000
 UP BND SELL_1_5 856.026
 UP BND PINV_1_5 3000
 UP BND SELL_2_5 788.622
 UP BND PINV_2_5 3000
 UP BND SELL_3_5 895.651
 UP BND PINV_3_5 3000
 UP BND SELL_4_5 787.442
 UP BND PINV_4_5 3000
 UP BND BUY_0_6 520.296
 UP BND INV_0_6 5000
 UP BND BUY_1_6 1478.39
 UP BND INV_1_6 5000
 UP BND BUY_2_6 1036.51
 UP BND INV_2_6 5000
 UP BND BUY_3_6 598.82
 UP BND INV_3_6 5000
 UP BND BUY_4_6 1301.28
 UP BND INV_4_6 5000
 UP BND BUY_5_6 634.633
 UP BND INV_5_6 5000
 UP BND BUY_6_6 974.751
 UP BND INV_6_6 5000
 UP BND BUY_7_6 516.887
 UP BND INV_7_6 5000
 UP BND BUY_8_6 292.191
 UP BND INV_8_6 5000
 UP BND BUY_9_6 578.068
 UP BND INV_9_6 5000
 UP BND SELL_0_6 1076.38
 UP BND PINV_0_6 3000
 UP BND SELL_1_6 751.287
 UP BND PINV_1_6 3000
 UP BND SELL_2_6 369.396
 UP BND PINV_2_6 3000
 UP BND SELL_3_6 455.918
 UP BND PINV_3_6 3000
 UP BND SELL_4_6 1186.41
 UP BND PINV_4_6 3000
 UP BND BUY_0_7 615.719
 UP BND INV_0_7 5000
 UP BND BUY_1_7 1395.16
 UP BND INV_1_7 5000
 UP BND BUY_2_7 384.185
 UP BND INV_2_7 5000
 UP BND BUY_3_7 610.889
 UP BND INV_3_7 5000
 UP BND BUY_4_7 1379.3
 UP BND INV_4_7 5000
 UP BND BUY_5_7 1096.47
 UP BND INV_5_7 5000
 UP BND BUY_6_7 405.266
 UP BND INV_6_7 5000
 UP BND BUY_7_7 528.362
 UP BND INV_7_7 5000
 UP BND BUY_8_7 1250.73
 UP BND INV_8_7 5000
 UP BND BUY_9_7 1306.68
 UP BND INV_9_7 5000
 UP BND SELL_0_7 604.802
 UP BND PINV_0_7 3000
 UP BND SELL_1_7 321.968
 UP BND PINV_1_7 3000
 UP BND SELL_2_7 675.015
 UP BND PINV_2_7 3000
 UP BND SELL_3_7 356.089
 UP BND PINV_3_7 3000
 UP BND SELL_4_7 424.456
 UP BND PINV_4_7 3000
 UP BND BUY_0_8 536.847
 UP BND INV_0_8 5000
 UP BND BUY_1_8 721.407
 UP BND INV_1_8 5000
 UP BND BUY_2_8 209.72
 UP BND INV_2_8 5000
 UP BND BUY_3_8 1043.49
 UP BND INV_3_8 5000
 UP BND BUY_4_8 1150.85
 UP BND INV_4_8 5000
 UP BND BUY_5_8 822.475
 UP BND INV_5_8 5000
 UP BND BUY_6_8 928.53
 UP BND INV_6_8 5000
 UP BND BUY_7_8 557.793
 UP BND INV_7_8 5000
 UP BND BUY_8_8 293.017
 UP BND INV_8_8 5000
 UP BND BUY_9_8 407.308
 UP BND INV_9_8 5000
 UP BND SELL_0_8 580.622
 UP BND PINV_0_8 3000
 UP BND SELL_1_8 1064.09
 UP BND PINV_1_8 3000
 UP BND SELL_2_8 931.154
 UP BND PINV_2_8 3000
 UP BND SELL_3_8 835.12
 UP BND PINV_3_8 3000
 UP BND SELL_4_8 1106.94
 UP BND PINV_4_8 3000
 UP BND BUY_0_9 942.603
 UP BND INV_0_9 5000
 UP BND BUY_1_9 482.904
 UP BND INV_1_9 5000
 UP BND BUY_2_9 267.773
 UP BND INV_2_9 5000
 UP BND BUY_3_9 652.376
 UP BND INV_3_9 5000
 UP BND BUY_4_9 1148.86
 UP BND INV_4_9 5000
 UP BND BUY_5_9 1250.33
 UP BND INV_5_9 5000
 UP BND BUY_6_9 1386.72
 UP BND INV_6_9 5000
 UP BND BUY_7_9 1208.48
 UP BND INV_7_9 5000
 UP BND BUY_8_9 1110.53
 UP BND INV_8_9 5000
 UP BND BUY_9_9 1462.57
 UP BND INV_9_9 5000
 UP BND SELL_0_9 689.629
 UP BND PINV_0_9 3000
 UP BND SELL_1_9 592.921
 UP BND PINV_1_9 3000
 UP BND SELL_2_9 1118
 UP BND PINV_2_9 3000
 UP BND SELL_3_9 407.268
 UP BND PINV_3_9 3000
 UP BND SELL_4_9 667.402
 UP BND PINV_4_9 3000
 UP BND BUY_0_10 584.118
 UP BND INV_0_10 5000
 UP BND BUY_1_10 205.212
 UP BND INV_1_10 5000
 UP BND BUY_2_10 227.345
 UP BND INV_2_10 5000
 UP BND BUY_3_10 1285.93
 UP BND INV_3_10 5000
 UP BND BUY_4_10 905.041
 UP BND INV_4_10 5000
 UP BND BUY_5_10 526.147
 UP BND INV_5_10 5000
 UP BND BUY_6_10 1251.25
 UP BND INV_6_10 5000
 UP BND BUY_7_10 838.052
 UP BND INV_7_10 5000
 UP BND BUY_8_10 941.708
 UP BND INV_8_10 5000
 UP BND BUY_9_10 340.581
 UP BND INV_9_10 5000
 UP BND SELL_0_10 972.539
 UP BND PINV_0_10 3000
 UP BND SELL_1_10 1168.45
 UP BND PINV_1_10 3000
 UP BND SELL_2_10 1176.17
 UP BND PINV_2_10 3000
 UP BND SELL_3_10 750.334
 UP BND PINV_3_10 3000
 UP BND SELL_4_10 580.126
 UP BND PINV_4_10 3000
 UP BND BUY_0_11 663.864
 UP BND INV_0_11 5000
 UP BND BUY_1_11 775.009
 UP BND INV_1_11 5000
 UP BND BUY_2_11 719.224
 UP BND INV_2_11 5000
 UP BND BUY_3_11 839.989
 UP BND INV_3_11 5000
 UP BND BUY_4_11 465.088
 UP BND INV_4_11 5000
 UP BND BUY_5_11 977.613
 UP BND INV_5_11 5000
 UP BND BUY_6_11 864.248
 UP BND INV_6_11 5000
 UP BND BUY_7_11 1284.97
 UP BND INV_7_11 5000
 UP BND BUY_8_11 1483.87
 UP BND INV_8_11 5000
 UP BND BUY_9_11 1006.04
 UP BND INV_9_11 5000
 UP BND SELL_0_11 303.167
 UP BND PINV_0_11 3000
 UP BND SELL_1_11 683.283
 UP BND PINV_1_11 3000
 UP BND SELL_2_11 1075.12
 UP BND PINV_2_11 3000
 UP BND SELL_3_11 960.448
 UP BND PINV_3_11 3000
 UP BND SELL_4_11 973.896
 UP BND PINV_4_11 3000
QUADOBJ
    BUY_0_0 BUY_0_0 0.0381216
    BUY_1_0 BUY_1_0 0.0275585
    BUY_2_0 BUY_2_0 0.0308375
    BUY_3_0 BUY_3_0 0.011183
    BUY_4_0 BUY_4_0 0.0493275
    BUY_5_0 BUY_5_0 0.016814
    BUY_6_0 BUY_6_0 0.0408209
    BUY_7_0 BUY_7_0 0.019287
    BUY_8_0 BUY_8_0 0.0331118
    BUY_9_0 BUY_9_0 0.0319199
    BUY_0_1 BUY_0_1 0.0328
    BUY_1_1 BUY_1_1 0.029397
    BUY_2_1 BUY_2_1 0.0315392
    BUY_3_1 BUY_3_1 0.0283259
    BUY_4_1 BUY_4_1 0.0170885
    BUY_5_1 BUY_5_1 0.0419376
    BUY_6_1 BUY_6_1 0.0202118
    BUY_7_1 BUY_7_1 0.0133294
    BUY_8_1 BUY_8_1 0.0402235
    BUY_9_1 BUY_9_1 0.0349921
    BUY_0_2 BUY_0_2 0.0268367
    BUY_1_2 BUY_1_2 0.0459927
    BUY_2_2 BUY_2_2 0.0342259
    BUY_3_2 BUY_3_2 0.0107146
    BUY_4_2 BUY_4_2 0.0164091
    BUY_5_2 BUY_5_2 0.0317881
    BUY_6_2 BUY_6_2 0.0419124
    BUY_7_2 BUY_7_2 0.0359403
    BUY_8_2 BUY_8_2 0.0228498
    BUY_9_2 BUY_9_2 0.0219442
    BUY_0_3 BUY_0_3 0.0427766
    BUY_1_3 BUY_1_3 0.0168607
    BUY_2_3 BUY_2_3 0.0381609
    BUY_3_3 BUY_3_3 0.0238772
    BUY_4_3 BUY_4_3 0.027318
    BUY_5_3 BUY_5_3 0.0366383
    BUY_6_3 BUY_6_3 0.0230138
    BUY_7_3 BUY_7_3 0.0107237
    BUY_8_3 BUY_8_3 0.049482
    BUY_9_3 BUY_9_3 0.0185212
    BUY_0_4 BUY_0_4 0.0464395
    BUY_1_4 BUY_1_4 0.0340084
    BUY_2_4 BUY_2_4 0.0236114
    BUY_3_4 BUY_3_4 0.0341593
    BUY_4_4 BUY_4_4 0.0154138
    BUY_5_4 BUY_5_4 0.0115655
    BUY_6_4 BUY_6_4 0.0415247
    BUY_7_4 BUY_7_4 0.0346074
    BUY_8_4 BUY_8_4 0.0328313
    BUY_9_4 BUY_9_4 0.0206689
    BUY_0_5 BUY_0_5 0.0116009
    BUY_1_5 BUY_1_5 0.0268405
    BUY_2_5 BUY_2_5 0.0196568
    BUY_3_5 BUY_3_5 0.0464306
    BUY_4_5 BUY_4_5 0.0463689
    BUY_5_5 BUY_5_5 0.0290804
    BUY_6_5 BUY_6_5 0.0115848
    BUY_7_5 BUY_7_5 0.021822
    BUY_8_5 BUY_8_5 0.0225312
    BUY_9_5 BUY_9_5 0.0487925
    BUY_0_6 BUY_0_6 0.0132548
    BUY_1_6 BUY_1_6 0.0279161
    BUY_2_6 BUY_2_6 0.0476294
    BUY_3_6 BUY_3_6 0.0230897
    BUY_4_6 BUY_4_6 0.04574
    BUY_5_6 BUY_5_6 0.031769
    BUY_6_6 BUY_6_6 0.0198039
    BUY_7_6 BUY_7_6 0.0128931
    BUY_8_6 BUY_8_6 0.0130052
    BUY_9_6 BUY_9_6 0.0416874
    BUY_0_7 BUY_0_7 0.0142751
    BUY_1_7 BUY_1_7 0.0217396
    BUY_2_7 BUY_2_7 0.0464193
    BUY_3_7 BUY_3_7 0.0461235
    BUY_4_7 BUY_4_7 0.0436287
    BUY_5_7 BUY_5_7 0.0171262
    BUY_6_7 BUY_6_7 0.038593
    BUY_7_7 BUY_7_7 0.0125766
    BUY_8_7 BUY_8_7 0.0319708
    BUY_9_7 BUY_9_7 0.0281324
    BUY_0_8 BUY_0_8 0.0431574
    BUY_1_8 BUY_1_8 0.0344978
    BUY_2_8 BUY_2_8 0.0311481
    BUY_3_8 BUY_3_8 0.0275327
    BUY_4_8 BUY_4_8 0.019535
    BUY_5_8 BUY_5_8 0.0190025
    BUY_6_8 BUY_6_8 0.0462776
    BUY_7_8 BUY_7_8 0.0358566
    BUY_8_8 BUY_8_8 0.0304677
    BUY_9_8 BUY_9_8 0.0406411
    BUY_0_9 BUY_0_9 0.017051
    BUY_1_9 BUY_1_9 0.0327807
    BUY_2_9 BUY_2_9 0.0372655
    BUY_3_9 BUY_3_9 0.0306022
    BUY_4_9 BUY_4_9 0.0116283
    BUY_5_9 BUY_5_9 0.0351379
    BUY_6_9 BUY_6_9 0.0483776
    BUY_7_9 BUY_7_9 0.0436772
    BUY_8_9 BUY_8_9 0.0278023
    BUY_9_9 BUY_9_9 0.0252941
    BUY_0_10 BUY_0_10 0.0199287
    BUY_1_10 BUY_1_10 0.0175935
    BUY_2_10 BUY_2_10 0.0351011
    BUY_3_10 BUY_3_10 0.0182642
    BUY_4_10 BUY_4_10 0.020929
    BUY_5_10 BUY_5_10 0.0373411
    BUY_6_10 BUY_6_10 0.0489446
    BUY_7_10 BUY_7_10 0.0442279
    BUY_8_10 BUY_8_10 0.0253303
    BUY_9_10 BUY_9_10 0.042302
    BUY_0_11 BUY_0_11 0.0311358
    BUY_1_11 BUY_1_11 0.0279821
    BUY_2_11 BUY_2_11 0.0413235
    BUY_3_11 BUY_3_11 0.0359067
    BUY_4_11 BUY_4_11 0.010155
    BUY_5_11 BUY_5_11 0.0452665
    BUY_6_11 BUY_6_11 0.0494807
    BUY_7_11 BUY_7_11 0.0263586
    BUY_8_11 BUY_8_11 0.0222135
    BUY_9_11 BUY_9_11 0.0312382
ENDATA
