NAME REF_C4_P3_M3_T6_S1
ROWS
 N OBJ
 E CB_0_0
 E CB_1_0
 E CB_2_0
 E CB_3_0
 E PB_0_0
 L Q_0_0_0
 L Q_0_1_0
 E PB_1_0
 L Q_1_0_0
 L Q_1_1_0
 E PB_2_0
 L Q_2_0_0
 L Q_2_1_0
 L TU_0
 G TL_0
 L ONE_0
 L SUL_0
 E CB_0_1
 E CB_1_1
 E CB_2_1
 E CB_3_1
 E PB_0_1
 L Q_0_0_1
 L Q_0_1_1
 E PB_1_1
 L Q_1_0_1
 L Q_1_1_1
 E PB_2_1
 L Q_2_0_1
 L Q_2_1_1
 L TU_1
 G TL_1
 L ONE_1
 L SUL_1
 G SWR_0_1
 G SWR_1_1
 G SWR_2_1
 E CB_0_2
 E CB_1_2
 E CB_2_2
 E CB_3_2
 E PB_0_2
 L Q_0_0_2
 L Q_0_1_2
 E PB_1_2
 L Q_1_0_2
 L Q_1_1_2
 E PB_2_2
 L Q_2_0_2
 L Q_2_1_2
 L TU_2
 G TL_2
 L ONE_2
 L SUL_2
 G SWR_0_2
 G SWR_1_2
 G SWR_2_2
 E CB_0_3
 E CB_1_3
 E CB_2_3
 E CB_3_3
 E PB_0_3
 L Q_0_0_3
 L Q_0_1_3
 E PB_1_3
 L Q_1_0_3
 L Q_1_1_3
 E PB_2_3
 L Q_2_0_3
 L Q_2_1_3
 L TU_3
 G TL_3
 L ONE_3
 L SUL_3
 G SWR_0_3
 G SWR_1_3
 G SWR_2_3
 E CB_0_4
 E CB_1_4
 E CB_2_4
 E CB_3_4
 E PB_0_4
 L Q_0_0_4
 L Q_0_1_4
 E PB_1_4
 L Q_1_0_4
 L Q_1_1_4
 E PB_2_4
 L Q_2_0_4
 L Q_2_1_4
 L TU_4
 G TL_4
 L ONE_4
 L SUL_4
 G SWR_0_4
 G SWR_1_4
 G SWR_2_4
 E CB_0_5
 E CB_1_5
 E CB_2_5
 E CB_3_5
 E PB_0_5
 L Q_0_0_5
 L Q_0_1_5
 E PB_1_5
 L Q_1_0_5
 L Q_1_1_5
 E PB_2_5
 L Q_2_0_5
 L Q_2_1_5
 L TU_5
 G TL_5
 L ONE_5
 L SUL_5
 G SWR_0_5
 G SWR_1_5
 G SWR_2_5
COLUMNS
    MARKER 'MARKER' 'INTORG'
    NC_0_0 OBJ 24149.721
    NC_0_0 CB_0_0 400
    MARKER 'MARKER' 'INTEND'
    INV_0_0 OBJ 0.3
    INV_0_0 CB_0_0 -1
    INV_0_0 CB_0_1 1
    X_0_0_0 CB_0_0 -1
    X_0_0_0 PB_0_0 1
    X_0_0_0 Q_0_0_0 -0.3583
    X_0_0_0 Q_0_1_0 -0.461058
    X_0_0_0 TU_0 1
    X_0_0_0 TL_0 1
    X_0_0_0 SUL_0 0.2
    X_0_1_0 CB_0_0 -1
    X_0_1_0 PB_1_0 1
    X_0_1_0 Q_1_0_0 -0.26452
    X_0_1_0 Q_1_1_0 -0.360846
    X_0_1_0 TU_0 1
    X_0_1_0 TL_0 1
    X_0_1_0 SUL_0 0.2
    X_0_2_0 CB_0_0 -1
    X_0_2_0 PB_2_0 1
    X_0_2_0 Q_2_0_0 -0.468944
    X_0_2_0 Q_2_1_0 -0.497906
    X_0_2_0 TU_0 1
    X_0_2_0 TL_0 1
    X_0_2_0 SUL_0 0.2
    MARKER 'MARKER' 'INTORG'
    NC_1_0 OBJ 18688.366
    NC_1_0 CB_1_0 300
    MARKER 'MARKER' 'INTEND'
    INV_1_0 OBJ 0.3
    INV_1_0 CB_1_0 -1
    INV_1_0 CB_1_1 1
    X_1_0_0 CB_1_0 -1
    X_1_0_0 PB_0_0 1
    X_1_0_0 Q_0_0_0 0.064818
    X_1_0_0 Q_0_1_0 0.224405
    X_1_0_0 TU_0 1
    X_1_0_0 TL_0 1
    X_1_0_0 SUL_0 1.7159549
    X_1_1_0 CB_1_0 -1
    X_1_1_0 PB_1_0 1
    X_1_1_0 Q_1_0_0 0.158597
    X_1_1_0 Q_1_1_0 0.324617
    X_1_1_0 TU_0 1
    X_1_1_0 TL_0 1
    X_1_1_0 SUL_0 1.7159549
    X_1_2_0 CB_1_0 -1
    X_1_2_0 PB_2_0 1
    X_1_2_0 Q_2_0_0 -0.045826
    X_1_2_0 Q_2_1_0 0.187557
    X_1_2_0 TU_0 1
    X_1_2_0 TL_0 1
    X_1_2_0 SUL_0 1.7159549
    MARKER 'MARKER' 'INTORG'
    NC_2_0 OBJ 35624.021
    NC_2_0 CB_2_0 500
    MARKER 'MARKER' 'INTEND'
    INV_2_0 OBJ 0.3
    INV_2_0 CB_2_0 -1
    INV_2_0 CB_2_1 1
    X_2_0_0 CB_2_0 -1
    X_2_0_0 PB_0_0 1
    X_2_0_0 Q_0_0_0 -0.140976
    X_2_0_0 Q_0_1_0 0.436949
    X_2_0_0 TU_0 1
    X_2_0_0 TL_0 1
    X_2_0_0 SUL_0 2.8296177
    X_2_1_0 CB_2_0 -1
    X_2_1_0 PB_1_0 1
    X_2_1_0 Q_1_0_0 -0.047196
    X_2_1_0 Q_1_1_0 0.537161
    X_2_1_0 TU_0 1
    X_2_1_0 TL_0 1
    X_2_1_0 SUL_0 2.8296177
    X_2_2_0 CB_2_0 -1
    X_2_2_0 PB_2_0 1
    X_2_2_0 Q_2_0_0 -0.25162
    X_2_2_0 Q_2_1_0 0.400101
    X_2_2_0 TU_0 1
    X_2_2_0 TL_0 1
    X_2_2_0 SUL_0 2.8296177
    MARKER 'MARKER' 'INTORG'
    NC_3_0 OBJ 22454.042
    NC_3_0 CB_3_0 300
    MARKER 'MARKER' 'INTEND'
    INV_3_0 OBJ 0.3
    INV_3_0 CB_3_0 -1
    INV_3_0 CB_3_1 1
    X_3_0_0 CB_3_0 -1
    X_3_0_0 PB_0_0 1
    X_3_0_0 Q_0_0_0 0.498056
    X_3_0_0 Q_0_1_0 -0.431998
    X_3_0_0 TU_0 1
    X_3_0_0 TL_0 1
    X_3_0_0 SUL_0 1.2673719
    X_3_1_0 CB_3_0 -1
    X_3_1_0 PB_1_0 1
    X_3_1_0 Q_1_0_0 0.591836
    X_3_1_0 Q_1_1_0 -0.331785
    X_3_1_0 TU_0 1
    X_3_1_0 TL_0 1
    X_3_1_0 SUL_0 1.2673719
    X_3_2_0 CB_3_0 -1
    X_3_2_0 PB_2_0 1
    X_3_2_0 Q_2_0_0 0.387412
    X_3_2_0 Q_2_1_0 -0.468846
    X_3_2_0 TU_0 1
    X_3_2_0 TL_0 1
    X_3_2_0 SUL_0 1.2673719
    MARKER 'MARKER' 'INTORG'
    Z_0_0 OBJ 1553.7243
    Z_0_0 TU_0 -220.02323
    Z_0_0 TL_0 -135
    Z_0_0 ONE_0 1
    Z_0_0 SUL_0 -253.15545
    Z_0_0 SWR_0_1 1
    Z_1_0 OBJ 3105.7359
    Z_1_0 TU_0 -531.99578
    Z_1_0 TL_0 -292.5
    Z_1_0 ONE_0 1
    Z_1_0 SUL_0 -881.65703
    Z_1_0 SWR_1_1 1
    Z_2_0 OBJ 3649.8663
    Z_2_0 TU_0 -671.82891
    Z_2_0 TL_0 -450
    Z_2_0 ONE_0 1
    Z_2_0 SUL_0 -1670.0541
    Z_2_0 SWR_2_1 1
    MARKER 'MARKER' 'INTEND'
    SELL_0_0 OBJ -86.338573
    SELL_0_0 PB_0_0 -1
    PINV_0_0 OBJ 0.5
    PINV_0_0 PB_0_0 -1
    PINV_0_0 PB_0_1 1
    SELL_1_0 OBJ -83.124227
    SELL_1_0 PB_1_0 -1
    PINV_1_0 OBJ 0.5
    PINV_1_0 PB_1_0 -1
    PINV_1_0 PB_1_1 1
    SELL_2_0 OBJ -78.809851
    SELL_2_0 PB_2_0 -1
    PINV_2_0 OBJ 0.5
    PINV_2_0 PB_2_0 -1
    PINV_2_0 PB_2_1 1
    MARKER 'MARKER' 'INTORG'
    NC_0_1 OBJ 23756.097
    NC_0_1 CB_0_1 400
    MARKER 'MARKER' 'INTEND'
    INV_0_1 OBJ 0.3
    INV_0_1 CB_0_1 -1
    INV_0_1 CB_0_2 1
    X_0_0_1 CB_0_1 -1
    X_0_0_1 PB_0_1 1
    X_0_0_1 Q_0_0_1 -0.3583
    X_0_0_1 Q_0_1_1 -0.461058
    X_0_0_1 TU_1 1
    X_0_0_1 TL_1 1
    X_0_0_1 SUL_1 0.2
    X_0_1_1 CB_0_1 -1
    X_0_1_1 PB_1_1 1
    X_0_1_1 Q_1_0_1 -0.26452
    X_0_1_1 Q_1_1_1 -0.360846
    X_0_1_1 TU_1 1
    X_0_1_1 TL_1 1
    X_0_1_1 SUL_1 0.2
    X_0_2_1 CB_0_1 -1
    X_0_2_1 PB_2_1 1
    X_0_2_1 Q_2_0_1 -0.468944
    X_0_2_1 Q_2_1_1 -0.497906
    X_0_2_1 TU_1 1
    X_0_2_1 TL_1 1
    X_0_2_1 SUL_1 0.2
    MARKER 'MARKER' 'INTORG'
    NC_1_1 OBJ 18636.007
    NC_1_1 CB_1_1 300
    MARKER 'MARKER' 'INTEND'
    INV_1_1 OBJ 0.3
    INV_1_1 CB_1_1 -1
    INV_1_1 CB_1_2 1
    X_1_0_1 CB_1_1 -1
    X_1_0_1 PB_0_1 1
    X_1_0_1 Q_0_0_1 0.064818
    X_1_0_1 Q_0_1_1 0.224405
    X_1_0_1 TU_1 1
    X_1_0_1 TL_1 1
    X_1_0_1 SUL_1 1.7159549
    X_1_1_1 CB_1_1 -1
    X_1_1_1 PB_1_1 1
    X_1_1_1 Q_1_0_1 0.158597
    X_1_1_1 Q_1_1_1 0.324617
    X_1_1_1 TU_1 1
    X_1_1_1 TL_1 1
    X_1_1_1 SUL_1 1.7159549
    X_1_2_1 CB_1_1 -1
    X_1_2_1 PB_2_1 1
    X_1_2_1 Q_2_0_1 -0.045826
    X_1_2_1 Q_2_1_1 0.187557
    X_1_2_1 TU_1 1
    X_1_2_1 TL_1 1
    X_1_2_1 SUL_1 1.7159549
    MARKER 'MARKER' 'INTORG'
    NC_2_1 OBJ 34861.834
    NC_2_1 CB_2_1 500
    MARKER 'MARKER' 'INTEND'
    INV_2_1 OBJ 0.3
    INV_2_1 CB_2_1 -1
    INV_2_1 CB_2_2 1
    X_2_0_1 CB_2_1 -1
    X_2_0_1 PB_0_1 1
    X_2_0_1 Q_0_0_1 -0.140976
    X_2_0_1 Q_0_1_1 0.436949
    X_2_0_1 TU_1 1
    X_2_0_1 TL_1 1
    X_2_0_1 SUL_1 2.8296177
    X_2_1_1 CB_2_1 -1
    X_2_1_1 PB_1_1 1
    X_2_1_1 Q_1_0_1 -0.047196
    X_2_1_1 Q_1_1_1 0.537161
    X_2_1_1 TU_1 1
    X_2_1_1 TL_1 1
    X_2_1_1 SUL_1 2.8296177
    X_2_2_1 CB_2_1 -1
    X_2_2_1 PB_2_1 1
    X_2_2_1 Q_2_0_1 -0.25162
    X_2_2_1 Q_2_1_1 0.400101
    X_2_2_1 TU_1 1
    X_2_2_1 TL_1 1
    X_2_2_1 SUL_1 2.8296177
    MARKER 'MARKER' 'INTORG'
    NC_3_1 OBJ 22205.071
    NC_3_1 CB_3_1 300
    MARKER 'MARKER' 'INTEND'
    INV_3_1 OBJ 0.3
    INV_3_1 CB_3_1 -1
    INV_3_1 CB_3_2 1
    X_3_0_1 CB_3_1 -1
    X_3_0_1 PB_0_1 1
    X_3_0_1 Q_0_0_1 0.498056
    X_3_0_1 Q_0_1_1 -0.431998
    X_3_0_1 TU_1 1
    X_3_0_1 TL_1 1
    X_3_0_1 SUL_1 1.2673719
    X_3_1_1 CB_3_1 -1
    X_3_1_1 PB_1_1 1
    X_3_1_1 Q_1_0_1 0.591836
    X_3_1_1 Q_1_1_1 -0.331785
    X_3_1_1 TU_1 1
    X_3_1_1 TL_1 1
    X_3_1_1 SUL_1 1.2673719
    X_3_2_1 CB_3_1 -1
    X_3_2_1 PB_2_1 1
    X_3_2_1 Q_2_0_1 0.387412
    X_3_2_1 Q_2_1_1 -0.468846
    X_3_2_1 TU_1 1
    X_3_2_1 TL_1 1
    X_3_2_1 SUL_1 1.2673719
    MARKER 'MARKER' 'INTORG'
    Z_0_1 OBJ 1553.7243
    Z_0_1 TU_1 -220.02323
    Z_0_1 TL_1 -135
    Z_0_1 ONE_1 1
    Z_0_1 SUL_1 -253.15545
    Z_0_1 SWR_0_1 -1
    Z_0_1 SWR_0_2 1
    Z_1_1 OBJ 3105.7359
    Z_1_1 TU_1 -531.99578
    Z_1_1 TL_1 -292.5
    Z_1_1 ONE_1 1
    Z_1_1 SUL_1 -881.65703
    Z_1_1 SWR_1_1 -1
    Z_1_1 SWR_1_2 1
    Z_2_1 OBJ 3649.8663
    Z_2_1 TU_1 -671.82891
    Z_2_1 TL_1 -450
    Z_2_1 ONE_1 1
    Z_2_1 SUL_1 -1670.0541
    Z_2_1 SWR_2_1 -1
    Z_2_1 SWR_2_2 1
    MARKER 'MARKER' 'INTEND'
    SW_1 OBJ 3604.4498
    SW_1 SWR_0_1 1
    SW_1 SWR_1_1 1
    SW_1 SWR_2_1 1
    SELL_0_1 OBJ -84.846401
    SELL_0_1 PB_0_1 -1
    PINV_0_1 OBJ 0.5
    PINV_0_1 PB_0_1 -1
    PINV_0_1 PB_0_2 1
    SELL_1_1 OBJ -82.039358
    SELL_1_1 PB_1_1 -1
    PINV_1_1 OBJ 0.5
    PINV_1_1 PB_1_1 -1
    PINV_1_1 PB_1_2 1
    SELL_2_1 OBJ -82.726987
    SELL_2_1 PB_2_1 -1
    PINV_2_1 OBJ 0.5
    PINV_2_1 PB_2_1 -1
    PINV_2_1 PB_2_2 1
    MARKER 'MARKER' 'INTORG'
    NC_0_2 OBJ 24931.708
    NC_0_2 CB_0_2 400
    MARKER 'MARKER' 'INTEND'
    INV_0_2 OBJ 0.3
    INV_0_2 CB_0_2 -1
    INV_0_2 CB_0_3 1
    X_0_0_2 CB_0_2 -1
    X_0_0_2 PB_0_2 1
    X_0_0_2 Q_0_0_2 -0.3583
    X_0_0_2 Q_0_1_2 -0.461058
    X_0_0_2 TU_2 1
    X_0_0_2 TL_2 1
    X_0_0_2 SUL_2 0.2
    X_0_1_2 CB_0_2 -1
    X_0_1_2 PB_1_2 1
    X_0_1_2 Q_1_0_2 -0.26452
    X_0_1_2 Q_1_1_2 -0.360846
    X_0_1_2 TU_2 1
    X_0_1_2 TL_2 1
    X_0_1_2 SUL_2 0.2
    X_0_2_2 CB_0_2 -1
    X_0_2_2 PB_2_2 1
    X_0_2_2 Q_2_0_2 -0.468944
    X_0_2_2 Q_2_1_2 -0.497906
    X_0_2_2 TU_2 1
    X_0_2_2 TL_2 1
    X_0_2_2 SUL_2 0.2
    MARKER 'MARKER' 'INTORG'
    NC_1_2 OBJ 18192.406
    NC_1_2 CB_1_2 300
    MARKER 'MARKER' 'INTEND'
    INV_1_2 OBJ 0.3
    INV_1_2 CB_1_2 -1
    INV_1_2 CB_1_3 1
    X_1_0_2 CB_1_2 -1
    X_1_0_2 PB_0_2 1
    X_1_0_2 Q_0_0_2 0.064818
    X_1_0_2 Q_0_1_2 0.224405
    X_1_0_2 TU_2 1
    X_1_0_2 TL_2 1
    X_1_0_2 SUL_2 1.7159549
    X_1_1_2 CB_1_2 -1
    X_1_1_2 PB_1_2 1
    X_1_1_2 Q_1_0_2 0.158597
    X_1_1_2 Q_1_1_2 0.324617
    X_1_1_2 TU_2 1
    X_1_1_2 TL_2 1
    X_1_1_2 SUL_2 1.7159549
    X_1_2_2 CB_1_2 -1
    X_1_2_2 PB_2_2 1
    X_1_2_2 Q_2_0_2 -0.045826
    X_1_2_2 Q_2_1_2 0.187557
    X_1_2_2 TU_2 1
    X_1_2_2 TL_2 1
    X_1_2_2 SUL_2 1.7159549
    MARKER 'MARKER' 'INTORG'
    NC_2_2 OBJ 34799.134
    NC_2_2 CB_2_2 500
    MARKER 'MARKER' 'INTEND'
    INV_2_2 OBJ 0.3
    INV_2_2 CB_2_2 -1
    INV_2_2 CB_2_3 1
    X_2_0_2 CB_2_2 -1
    X_2_0_2 PB_0_2 1
    X_2_0_2 Q_0_0_2 -0.140976
    X_2_0_2 Q_0_1_2 0.436949
    X_2_0_2 TU_2 1
    X_2_0_2 TL_2 1
    X_2_0_2 SUL_2 2.8296177
    X_2_1_2 CB_2_2 -1
    X_2_1_2 PB_1_2 1
    X_2_1_2 Q_1_0_2 -0.047196
    X_2_1_2 Q_1_1_2 0.537161
    X_2_1_2 TU_2 1
    X_2_1_2 TL_2 1
    X_2_1_2 SUL_2 2.8296177
    X_2_2_2 CB_2_2 -1
    X_2_2_2 PB_2_2 1
    X_2_2_2 Q_2_0_2 -0.25162
    X_2_2_2 Q_2_1_2 0.400101
    X_2_2_2 TU_2 1
    X_2_2_2 TL_2 1
    X_2_2_2 SUL_2 2.8296177
    MARKER 'MARKER' 'INTORG'
    NC_3_2 OBJ 22809.895
    NC_3_2 CB_3_2 300
    MARKER 'MARKER' 'INTEND'
    INV_3_2 OBJ 0.3
    INV_3_2 CB_3_2 -1
    INV_3_2 CB_3_3 1
    X_3_0_2 CB_3_2 -1
    X_3_0_2 PB_0_2 1
    X_3_0_2 Q_0_0_2 0.498056
    X_3_0_2 Q_0_1_2 -0.431998
    X_3_0_2 TU_2 1
    X_3_0_2 TL_2 1
    X_3_0_2 SUL_2 1.2673719
    X_3_1_2 CB_3_2 -1
    X_3_1_2 PB_1_2 1
    X_3_1_2 Q_1_0_2 0.591836
    X_3_1_2 Q_1_1_2 -0.331785
    X_3_1_2 TU_2 1
    X_3_1_2 TL_2 1
    X_3_1_2 SUL_2 1.2673719
    X_3_2_2 CB_3_2 -1
    X_3_2_2 PB_2_2 1
    X_3_2_2 Q_2_0_2 0.387412
    X_3_2_2 Q_2_1_2 -0.468846
    X_3_2_2 TU_2 1
    X_3_2_2 TL_2 1
    X_3_2_2 SUL_2 1.2673719
    MARKER 'MARKER' 'INTORG'
    Z_0_2 OBJ 1553.7243
    Z_0_2 TU_2 -220.02323
    Z_0_2 TL_2 -135
    Z_0_2 ONE_2 1
    Z_0_2 SUL_2 -253.15545
    Z_0_2 SWR_0_2 -1
    Z_0_2 SWR_0_3 1
    Z_1_2 OBJ 3105.7359
    Z_1_2 TU_2 -531.99578
    Z_1_2 TL_2 -292.5
    Z_1_2 ONE_2 1
    Z_1_2 SUL_2 -881.65703
    Z_1_2 SWR_1_2 -1
    Z_1_2 SWR_1_3 1
    Z_2_2 OBJ 3649.8663
    Z_2_2 TU_2 -671.82891
    Z_2_2 TL_2 -450
    Z_2_2 ONE_2 1
    Z_2_2 SUL_2 -1670.0541
    Z_2_2 SWR_2_2 -1
    Z_2_2 SWR_2_3 1
    MARKER 'MARKER' 'INTEND'
    SW_2 OBJ 3604.4498
    SW_2 SWR_0_2 1
    SW_2 SWR_1_2 1
    SW_2 SWR_2_2 1
    SELL_0_2 OBJ -79.361689
    SELL_0_2 PB_0_2 -1
    PINV_0_2 OBJ 0.5
    PINV_0_2 PB_0_2 -1
    PINV_0_2 PB_0_3 1
    SELL_1_2 OBJ -87.094668
    SELL_1_2 PB_1_2 -1
    PINV_1_2 OBJ 0.5
    PINV_1_2 PB_1_2 -1
    PINV_1_2 PB_1_3 1
    SELL_2_2 OBJ -81.77786
    SELL_2_2 PB_2_2 -1
    PINV_2_2 OBJ 0.5
    PINV_2_2 PB_2_2 -1
    PINV_2_2 PB_2_3 1
    MARKER 'MARKER' 'INTORG'
    NC_0_3 OBJ 23597.233
    NC_0_3 CB_0_3 400
    MARKER 'MARKER' 'INTEND'
    INV_0_3 OBJ 0.3
    INV_0_3 CB_0_3 -1
    INV_0_3 CB_0_4 1
    X_0_0_3 CB_0_3 -1
    X_0_0_3 PB_0_3 1
    X_0_0_3 Q_0_0_3 -0.3583
    X_0_0_3 Q_0_1_3 -0.461058
    X_0_0_3 TU_3 1
    X_0_0_3 TL_3 1
    X_0_0_3 SUL_3 0.2
    X_0_1_3 CB_0_3 -1
    X_0_1_3 PB_1_3 1
    X_0_1_3 Q_1_0_3 -0.26452
    X_0_1_3 Q_1_1_3 -0.360846
    X_0_1_3 TU_3 1
    X_0_1_3 TL_3 1
    X_0_1_3 SUL_3 0.2
    X_0_2_3 CB_0_3 -1
    X_0_2_3 PB_2_3 1
    X_0_2_3 Q_2_0_3 -0.468944
    X_0_2_3 Q_2_1_3 -0.497906
    X_0_2_3 TU_3 1
    X_0_2_3 TL_3 1
    X_0_2_3 SUL_3 0.2
    MARKER 'MARKER' 'INTORG'
    NC_1_3 OBJ 18162.401
    NC_1_3 CB_1_3 300
    MARKER 'MARKER' 'INTEND'
    INV_1_3 OBJ 0.3
    INV_1_3 CB_1_3 -1
    INV_1_3 CB_1_4 1
    X_1_0_3 CB_1_3 -1
    X_1_0_3 PB_0_3 1
    X_1_0_3 Q_0_0_3 0.064818
    X_1_0_3 Q_0_1_3 0.224405
    X_1_0_3 TU_3 1
    X_1_0_3 TL_3 1
    X_1_0_3 SUL_3 1.7159549
    X_1_1_3 CB_1_3 -1
    X_1_1_3 PB_1_3 1
    X_1_1_3 Q_1_0_3 0.158597
    X_1_1_3 Q_1_1_3 0.324617
    X_1_1_3 TU_3 1
    X_1_1_3 TL_3 1
    X_1_1_3 SUL_3 1.7159549
    X_1_2_3 CB_1_3 -1
    X_1_2_3 PB_2_3 1
    X_1_2_3 Q_2_0_3 -0.045826
    X_1_2_3 Q_2_1_3 0.187557
    X_1_2_3 TU_3 1
    X_1_2_3 TL_3 1
    X_1_2_3 SUL_3 1.7159549
    MARKER 'MARKER' 'INTORG'
    NC_2_3 OBJ 36552.285
    NC_2_3 CB_2_3 500
    MARKER 'MARKER' 'INTEND'
    INV_2_3 OBJ 0.3
    INV_2_3 CB_2_3 -1
    INV_2_3 CB_2_4 1
    X_2_0_3 CB_2_3 -1
    X_2_0_3 PB_0_3 1
    X_2_0_3 Q_0_0_3 -0.140976
    X_2_0_3 Q_0_1_3 0.436949
    X_2_0_3 TU_3 1
    X_2_0_3 TL_3 1
    X_2_0_3 SUL_3 2.8296177
    X_2_1_3 CB_2_3 -1
    X_2_1_3 PB_1_3 1
    X_2_1_3 Q_1_0_3 -0.047196
    X_2_1_3 Q_1_1_3 0.537161
    X_2_1_3 TU_3 1
    X_2_1_3 TL_3 1
    X_2_1_3 SUL_3 2.8296177
    X_2_2_3 CB_2_3 -1
    X_2_2_3 PB_2_3 1
    X_2_2_3 Q_2_0_3 -0.25162
    X_2_2_3 Q_2_1_3 0.400101
    X_2_2_3 TU_3 1
    X_2_2_3 TL_3 1
    X_2_2_3 SUL_3 2.8296177
    MARKER 'MARKER' 'INTORG'
    NC_3_3 OBJ 23346.237
    NC_3_3 CB_3_3 300
    MARKER 'MARKER' 'INTEND'
    INV_3_3 OBJ 0.3
    INV_3_3 CB_3_3 -1
    INV_3_3 CB_3_4 1
    X_3_0_3 CB_3_3 -1
    X_3_0_3 PB_0_3 1
    X_3_0_3 Q_0_0_3 0.498056
    X_3_0_3 Q_0_1_3 -0.431998
    X_3_0_3 TU_3 1
    X_3_0_3 TL_3 1
    X_3_0_3 SUL_3 1.2673719
    X_3_1_3 CB_3_3 -1
    X_3_1_3 PB_1_3 1
    X_3_1_3 Q_1_0_3 0.591836
    X_3_1_3 Q_1_1_3 -0.331785
    X_3_1_3 TU_3 1
    X_3_1_3 TL_3 1
    X_3_1_3 SUL_3 1.2673719
    X_3_2_3 CB_3_3 -1
    X_3_2_3 PB_2_3 1
    X_3_2_3 Q_2_0_3 0.387412
    X_3_2_3 Q_2_1_3 -0.468846
    X_3_2_3 TU_3 1
    X_3_2_3 TL_3 1
    X_3_2_3 SUL_3 1.2673719
    MARKER 'MARKER' 'INTORG'
    Z_0_3 OBJ 1553.7243
    Z_0_3 TU_3 -220.02323
    Z_0_3 TL_3 -135
    Z_0_3 ONE_3 1
    Z_0_3 SUL_3 -253.15545
    Z_0_3 SWR_0_3 -1
    Z_0_3 SWR_0_4 1
    Z_1_3 OBJ 3105.7359
    Z_1_3 TU_3 -531.99578
    Z_1_3 TL_3 -292.5
    Z_1_3 ONE_3 1
    Z_1_3 SUL_3 -881.65703
    Z_1_3 SWR_1_3 -1
    Z_1_3 SWR_1_4 1
    Z_2_3 OBJ 3649.8663
    Z_2_3 TU_3 -671.82891
    Z_2_3 TL_3 -450
    Z_2_3 ONE_3 1
    Z_2_3 SUL_3 -1670.0541
    Z_2_3 SWR_2_3 -1
    Z_2_3 SWR_2_4 1
    MARKER 'MARKER' 'INTEND'
    SW_3 OBJ 3604.4498
    SW_3 SWR_0_3 1
    SW_3 SWR_1_3 1
    SW_3 SWR_2_3 1
    SELL_0_3 OBJ -86.154052
    SELL_0_3 PB_0_3 -1
    PINV_0_3 OBJ 0.5
    PINV_0_3 PB_0_3 -1
    PINV_0_3 PB_0_4 1
    SELL_1_3 OBJ -83.194744
    SELL_1_3 PB_1_3 -1
    PINV_1_3 OBJ 0.5
    PINV_1_3 PB_1_3 -1
    PINV_1_3 PB_1_4 1
    SELL_2_3 OBJ -83.300367
    SELL_2_3 PB_2_3 -1
    PINV_2_3 OBJ 0.5
    PINV_2_3 PB_2_3 -1
    PINV_2_3 PB_2_4 1
    MARKER 'MARKER' 'INTORG'
    NC_0_4 OBJ 24230.973
    NC_0_4 CB_0_4 400
    MARKER 'MARKER' 'INTEND'
    INV_0_4 OBJ 0.3
    INV_0_4 CB_0_4 -1
    INV_0_4 CB_0_5 1
    X_0_0_4 CB_0_4 -1
    X_0_0_4 PB_0_4 1
    X_0_0_4 Q_0_0_4 -0.3583
    X_0_0_4 Q_0_1_4 -0.461058
    X_0_0_4 TU_4 1
    X_0_0_4 TL_4 1
    X_0_0_4 SUL_4 0.2
    X_0_1_4 CB_0_4 -1
    X_0_1_4 PB_1_4 1
    X_0_1_4 Q_1_0_4 -0.26452
    X_0_1_4 Q_1_1_4 -0.360846
    X_0_1_4 TU_4 1
    X_0_1_4 TL_4 1
    X_0_1_4 SUL_4 0.2
    X_0_2_4 CB_0_4 -1
    X_0_2_4 PB_2_4 1
    X_0_2_4 Q_2_0_4 -0.468944
    X_0_2_4 Q_2_1_4 -0.497906
    X_0_2_4 TU_4 1
    X_0_2_4 TL_4 1
    X_0_2_4 SUL_4 0.2
    MARKER 'MARKER' 'INTORG'
    NC_1_4 OBJ 17788.609
    NC_1_4 CB_1_4 300
    MARKER 'MARKER' 'INTEND'
    INV_1_4 OBJ 0.3
    INV_1_4 CB_1_4 -1
    INV_1_4 CB_1_5 1
    X_1_0_4 CB_1_4 -1
    X_1_0_4 PB_0_4 1
    X_1_0_4 Q_0_0_4 0.064818
    X_1_0_4 Q_0_1_4 0.224405
    X_1_0_4 TU_4 1
    X_1_0_4 TL_4 1
    X_1_0_4 SUL_4 1.7159549
    X_1_1_4 CB_1_4 -1
    X_1_1_4 PB_1_4 1
    X_1_1_4 Q_1_0_4 0.158597
    X_1_1_4 Q_1_1_4 0.324617
    X_1_1_4 TU_4 1
    X_1_1_4 TL_4 1
    X_1_1_4 SUL_4 1.7159549
    X_1_2_4 CB_1_4 -1
    X_1_2_4 PB_2_4 1
    X_1_2_4 Q_2_0_4 -0.045826
    X_1_2_4 Q_2_1_4 0.187557
    X_1_2_4 TU_4 1
    X_1_2_4 TL_4 1
    X_1_2_4 SUL_4 1.7159549
    MARKER 'MARKER' 'INTORG'
    NC_2_4 OBJ 35259.859
    NC_2_4 CB_2_4 500
    MARKER 'MARKER' 'INTEND'
    INV_2_4 OBJ 0.3
    INV_2_4 CB_2_4 -1
    INV_2_4 CB_2_5 1
    X_2_0_4 CB_2_4 -1
    X_2_0_4 PB_0_4 1
    X_2_0_4 Q_0_0_4 -0.140976
    X_2_0_4 Q_0_1_4 0.436949
    X_2_0_4 TU_4 1
    X_2_0_4 TL_4 1
    X_2_0_4 SUL_4 2.8296177
    X_2_1_4 CB_2_4 -1
    X_2_1_4 PB_1_4 1
    X_2_1_4 Q_1_0_4 -0.047196
    X_2_1_4 Q_1_1_4 0.537161
    X_2_1_4 TU_4 1
    X_2_1_4 TL_4 1
    X_2_1_4 SUL_4 2.8296177
    X_2_2_4 CB_2_4 -1
    X_2_2_4 PB_2_4 1
    X_2_2_4 Q_2_0_4 -0.25162
    X_2_2_4 Q_2_1_4 0.400101
    X_2_2_4 TU_4 1
    X_2_2_4 TL_4 1
    X_2_2_4 SUL_4 2.8296177
    MARKER 'MARKER' 'INTORG'
    NC_3_4 OBJ 23702.602
    NC_3_4 CB_3_4 300
    MARKER 'MARKER' 'INTEND'
    INV_3_4 OBJ 0.3
    INV_3_4 CB_3_4 -1
    INV_3_4 CB_3_5 1
    X_3_0_4 CB_3_4 -1
    X_3_0_4 PB_0_4 1
    X_3_0_4 Q_0_0_4 0.498056
    X_3_0_4 Q_0_1_4 -0.431998
    X_3_0_4 TU_4 1
    X_3_0_4 TL_4 1
    X_3_0_4 SUL_4 1.2673719
    X_3_1_4 CB_3_4 -1
    X_3_1_4 PB_1_4 1
    X_3_1_4 Q_1_0_4 0.591836
    X_3_1_4 Q_1_1_4 -0.331785
    X_3_1_4 TU_4 1
    X_3_1_4 TL_4 1
    X_3_1_4 SUL_4 1.2673719
    X_3_2_4 CB_3_4 -1
    X_3_2_4 PB_2_4 1
    X_3_2_4 Q_2_0_4 0.387412
    X_3_2_4 Q_2_1_4 -0.468846
    X_3_2_4 TU_4 1
    X_3_2_4 TL_4 1
    X_3_2_4 SUL_4 1.2673719
    MARKER 'MARKER' 'INTORG'
    Z_0_4 OBJ 1553.7243
    Z_0_4 TU_4 -220.02323
    Z_0_4 TL_4 -135
    Z_0_4 ONE_4 1
    Z_0_4 SUL_4 -253.15545
    Z_0_4 SWR_0_4 -1
    Z_0_4 SWR_0_5 1
    Z_1_4 OBJ 3105.7359
    Z_1_4 TU_4 -531.99578
    Z_1_4 TL_4 -292.5
    Z_1_4 ONE_4 1
    Z_1_4 SUL_4 -881.65703
    Z_1_4 SWR_1_4 -1
    Z_1_4 SWR_1_5 1
    Z_2_4 OBJ 3649.8663
    Z_2_4 TU_4 -671.82891
    Z_2_4 TL_4 -450
    Z_2_4 ONE_4 1
    Z_2_4 SUL_4 -1670.0541
    Z_2_4 SWR_2_4 -1
    Z_2_4 SWR_2_5 1
    MARKER 'MARKER' 'INTEND'
    SW_4 OBJ 3604.4498
    SW_4 SWR_0_4 1
    SW_4 SWR_1_4 1
    SW_4 SWR_2_4 1
    SELL_0_4 OBJ -85.516775
    SELL_0_4 PB_0_4 -1
    PINV_0_4 OBJ 0.5
    PINV_0_4 PB_0_4 -1
    PINV_0_4 PB_0_5 1
    SELL_1_4 OBJ -86.288722
    SELL_1_4 PB_1_4 -1
    PINV_1_4 OBJ 0.5
    PINV_1_4 PB_1_4 -1
    PINV_1_4 PB_1_5 1
    SELL_2_4 OBJ -85.212604
    SELL_2_4 PB_2_4 -1
    PINV_2_4 OBJ 0.5
    PINV_2_4 PB_2_4 -1
    PINV_2_4 PB_2_5 1
    MARKER 'MARKER' 'INTORG'
    NC_0_5 OBJ 24361.649
    NC_0_5 CB_0_5 400
    MARKER 'MARKER' 'INTEND'
    INV_0_5 OBJ 0.3
    INV_0_5 CB_0_5 -1
    X_0_0_5 CB_0_5 -1
    X_0_0_5 PB_0_5 1
    X_0_0_5 Q_0_0_5 -0.3583
    X_0_0_5 Q_0_1_5 -0.461058
    X_0_0_5 TU_5 1
    X_0_0_5 TL_5 1
    X_0_0_5 SUL_5 0.2
    X_0_1_5 CB_0_5 -1
    X_0_1_5 PB_1_5 1
    X_0_1_5 Q_1_0_5 -0.26452
    X_0_1_5 Q_1_1_5 -0.360846
    X_0_1_5 TU_5 1
    X_0_1_5 TL_5 1
    X_0_1_5 SUL_5 0.2
    X_0_2_5 CB_0_5 -1
    X_0_2_5 PB_2_5 1
    X_0_2_5 Q_2_0_5 -0.468944
    X_0_2_5 Q_2_1_5 -0.497906
    X_0_2_5 TU_5 1
    X_0_2_5 TL_5 1
    X_0_2_5 SUL_5 0.2
    MARKER 'MARKER' 'INTORG'
    NC_1_5 OBJ 18257.261
    NC_1_5 CB_1_5 300
    MARKER 'MARKER' 'INTEND'
    INV_1_5 OBJ 0.3
    INV_1_5 CB_1_5 -1
    X_1_0_5 CB_1_5 -1
    X_1_0_5 PB_0_5 1
    X_1_0_5 Q_0_0_5 0.064818
    X_1_0_5 Q_0_1_5 0.224405
    X_1_0_5 TU_5 1
    X_1_0_5 TL_5 1
    X_1_0_5 SUL_5 1.7159549
    X_1_1_5 CB_1_5 -1
    X_1_1_5 PB_1_5 1
    X_1_1_5 Q_1_0_5 0.158597
    X_1_1_5 Q_1_1_5 0.324617
    X_1_1_5 TU_5 1
    X_1_1_5 TL_5 1
    X_1_1_5 SUL_5 1.7159549
    X_1_2_5 CB_1_5 -1
    X_1_2_5 PB_2_5 1
    X_1_2_5 Q_2_0_5 -0.045826
    X_1_2_5 Q_2_1_5 0.187557
    X_1_2_5 TU_5 1
    X_1_2_5 TL_5 1
    X_1_2_5 SUL_5 1.7159549
    MARKER 'MARKER' 'INTORG'
    NC_2_5 OBJ 34896.898
    NC_2_5 CB_2_5 500
    MARKER 'MARKER' 'INTEND'
    INV_2_5 OBJ 0.3
    INV_2_5 CB_2_5 -1
    X_2_0_5 CB_2_5 -1
    X_2_0_5 PB_0_5 1
    X_2_0_5 Q_0_0_5 -0.140976
    X_2_0_5 Q_0_1_5 0.436949
    X_2_0_5 TU_5 1
    X_2_0_5 TL_5 1
    X_2_0_5 SUL_5 2.8296177
    X_2_1_5 CB_2_5 -1
    X_2_1_5 PB_1_5 1
    X_2_1_5 Q_1_0_5 -0.047196
    X_2_1_5 Q_1_1_5 0.537161
    X_2_1_5 TU_5 1
    X_2_1_5 TL_5 1
    X_2_1_5 SUL_5 2.8296177
    X_2_2_5 CB_2_5 -1
    X_2_2_5 PB_2_5 1
    X_2_2_5 Q_2_0_5 -0.25162
    X_2_2_5 Q_2_1_5 0.400101
    X_2_2_5 TU_5 1
    X_2_2_5 TL_5 1
    X_2_2_5 SUL_5 2.8296177
    MARKER 'MARKER' 'INTORG'
    NC_3_5 OBJ 21981.84
    NC_3_5 CB_3_5 300
    MARKER 'MARKER' 'INTEND'
    INV_3_5 OBJ 0.3
    INV_3_5 CB_3_5 -1
    X_3_0_5 CB_3_5 -1
    X_3_0_5 PB_0_5 1
    X_3_0_5 Q_0_0_5 0.498056
    X_3_0_5 Q_0_1_5 -0.431998
    X_3_0_5 TU_5 1
    X_3_0_5 TL_5 1
    X_3_0_5 SUL_5 1.2673719
    X_3_1_5 CB_3_5 -1
    X_3_1_5 PB_1_5 1
    X_3_1_5 Q_1_0_5 0.591836
    X_3_1_5 Q_1_1_5 -0.331785
    X_3_1_5 TU_5 1
    X_3_1_5 TL_5 1
    X_3_1_5 SUL_5 1.2673719
    X_3_2_5 CB_3_5 -1
    X_3_2_5 PB_2_5 1
    X_3_2_5 Q_2_0_5 0.387412
    X_3_2_5 Q_2_1_5 -0.468846
    X_3_2_5 TU_5 1
    X_3_2_5 TL_5 1
    X_3_2_5 SUL_5 1.2673719
    MARKER 'MARKER' 'INTORG'
    Z_0_5 OBJ 1553.7243
    Z_0_5 TU_5 -220.02323
    Z_0_5 TL_5 -135
    Z_0_5 ONE_5 1
    Z_0_5 SUL_5 -253.15545
    Z_0_5 SWR_0_5 -1
    Z_1_5 OBJ 3105.7359
    Z_1_5 TU_5 -531.99578
    Z_1_5 TL_5 -292.5
    Z_1_5 ONE_5 1
    Z_1_5 SUL_5 -881.65703
    Z_1_5 SWR_1_5 -1
    Z_2_5 OBJ 3649.8663
    Z_2_5 TU_5 -671.82891
    Z_2_5 TL_5 -450
    Z_2_5 ONE_5 1
    Z_2_5 SUL_5 -1670.0541
    Z_2_5 SWR_2_5 -1
    MARKER 'MARKER' 'INTEND'
    SW_5 OBJ 3604.4498
    SW_5 SWR_0_5 1
    SW_5 SWR_1_5 1
    SW_5 SWR_2_5 1
    SELL_0_5 OBJ -83.740056
    SELL_0_5 PB_0_5 -1
    PINV_0_5 OBJ 0.5
    PINV_0_5 PB_0_5 -1
    SELL_1_5 OBJ -83.119547
    SELL_1_5 PB_1_5 -1
    PINV_1_5 OBJ 0.5
    PINV_1_5 PB_1_5 -1
    SELL_2_5 OBJ -81.4736
    SELL_2_5 PB_2_5 -1
    PINV_2_5 OBJ 0.5
    PINV_2_5 PB_2_5 -1
RHS
    RHS CB_0_0 -166.34759
    RHS CB_1_0 -270.55665
    RHS CB_2_0 -444.49486
    RHS CB_3_0 -351.16522
    RHS ONE_0 1
    RHS ONE_1 1
    RHS ONE_2 1
    RHS ONE_3 1
    RHS ONE_4 1
    RHS ONE_5 1
BOUNDS
 UP BND NC_0_0 2
 UP BND INV_0_0 1000
 UP BND NC_1_0 2
 UP BND INV_1_0 750
 UP BND NC_2_0 2
 UP BND INV_2_0 1250
 UP BND NC_3_0 2
 UP BND INV_3_0 750
 UP BND Z_0_0 1
 UP BND Z_1_0 1
 UP BND Z_2_0 1
 UP BND SELL_0_0 133.60282
 UP BND PINV_0_0 450
 UP BND SELL_1_0 162.69721
 UP BND PINV_1_0 450
 UP BND SELL_2_0 133.76275
 UP BND PINV_2_0 450
 UP BND NC_0_1 2
 UP BND INV_0_1 1000
 UP BND NC_1_1 2
 UP BND INV_1_1 750
 UP BND NC_2_1 2
 UP BND INV_2_1 1250
 UP BND NC_3_1 2
 UP BND INV_3_1 750
 UP BND Z_0_1 1
 UP BND Z_1_1 1
 UP BND Z_2_1 1
 UP BND SW_1 1
 UP BND SELL_0_1 129.23986
 UP BND PINV_0_1 450
 UP BND SELL_1_1 143.37966
 UP BND PINV_1_1 450
 UP BND SELL_2_1 116.88318
 UP BND PINV_2_1 450
 UP BND NC_0_2 2
 UP BND INV_0_2 1000
 UP BND NC_1_2 2
 UP BND INV_1_2 750
 UP BND NC_2_2 2
 UP BND INV_2_2 1250
 UP BND NC_3_2 2
 UP BND INV_3_2 750
 UP BND Z_0_2 1
 UP BND Z_1_2 1
 UP BND Z_2_2 1
 UP BND SW_2 1
 UP BND SELL_0_2 70.827183
 UP BND PINV_0_2 450
 UP BND SELL_1_2 146.63048
 UP BND PINV_1_2 450
 UP BND SELL_2_2 134.23317
 UP BND PINV_2_2 450
 UP BND NC_0_3 2
 UP BND INV_0_3 1000
 UP BND NC_1_3 2
 UP BND INV_1_3 750
 UP BND NC_2_3 2
 UP BND INV_2_3 1250
 UP BND NC_3_3 2
 UP BND INV_3_3 750
 UP BND Z_0_3 1
 UP BND Z_1_3 1
 UP BND Z_2_3 1
 UP BND SW_3 1
 UP BND SELL_0_3 128.20696
 UP BND PINV_0_3 450
 UP BND SELL_1_3 93.619814
 UP BND PINV_1_3 450
 UP BND SELL_2_3 174.65258
 UP BND PINV_2_3 450
 UP BND NC_0_4 2
 UP BND INV_0_4 1000
 UP BND NC_1_4 2
 UP BND INV_1_4 750
 UP BND NC_2_4 2
 UP BND INV_2_4 1250
 UP BND NC_3_4 2
 UP BND INV_3_4 750
 UP BND Z_0_4 1
 UP BND Z_1_4 1
 UP BND Z_2_4 1
 UP BND SW_4 1
 UP BND SELL_0_4 68.142277
 UP BND PINV_0_4 450
 UP BND SELL_1_4 159.80467
 UP BND PINV_1_4 450
 UP BND SELL_2_4 150.80663
 UP BND PINV_2_4 450
 UP BND NC_0_5 2
 UP BND INV_0_5 1000
 UP BND NC_1_5 2
 UP BND INV_1_5 750
 UP BND NC_2_5 2
 UP BND INV_2_5 1250
 UP BND NC_3_5 2
 UP BND INV_3_5 750
 UP BND Z_0_5 1
 UP BND Z_1_5 1
 UP BND Z_2_5 1
 UP BND SW_5 1
 UP BND SELL_0_5 165.37614
 UP BND PINV_0_5 450
 UP BND SELL_1_5 89.981935
 UP BND PINV_1_5 450
 UP BND SELL_2_5 122.05408
 UP BND PINV_2_5 450
ENDATA
