NAME REF_C5_P3_M3_T12_S2
ROWS
 N OBJ
 E CB_0_0
 E CB_1_0
 E CB_2_0
 E CB_3_0
 E CB_4_0
 E PB_0_0
 L Q_0_0_0
 L Q_0_1_0
 E PB_1_0
 L Q_1_0_0
 L Q_1_1_0
 E PB_2_0
 L Q_2_0_0
 L Q_2_1_0
 L TU_0
 G TL_0
 L ONE_0
 L SUL_0
 E CB_0_1
 E CB_1_1
 E CB_2_1
 E CB_3_1
 E CB_4_1
 E PB_0_1
 L Q_0_0_1
 L Q_0_1_1
 E PB_1_1
 L Q_1_0_1
 L Q_1_1_1
 E PB_2_1
 L Q_2_0_1
 L Q_2_1_1
 L TU_1
 G TL_1
 L ONE_1
 L SUL_1
 G SWR_0_1
 G SWR_1_1
 G SWR_2_1
 E CB_0_2
 E CB_1_2
 E CB_2_2
 E CB_3_2
 E CB_4_2
 E PB_0_2
 L Q_0_0_2
 L Q_0_1_2
 E PB_1_2
 L Q_1_0_2
 L Q_1_1_2
 E PB_2_2
 L Q_2_0_2
 L Q_2_1_2
 L TU_2
 G TL_2
 L ONE_2
 L SUL_2
 G SWR_0_2
 G SWR_1_2
 G SWR_2_2
 E CB_0_3
 E CB_1_3
 E CB_2_3
 E CB_3_3
 E CB_4_3
 E PB_0_3
 L Q_0_0_3
 L Q_0_1_3
 E PB_1_3
 L Q_1_0_3
 L Q_1_1_3
 E PB_2_3
 L Q_2_0_3
 L Q_2_1_3
 L TU_3
 G TL_3
 L ONE_3
 L SUL_3
 G SWR_0_3
 G SWR_1_3
 G SWR_2_3
 E CB_0_4
 E CB_1_4
 E CB_2_4
 E CB_3_4
 E CB_4_4
 E PB_0_4
 L Q_0_0_4
 L Q_0_1_4
 E PB_1_4
 L Q_1_0_4
 L Q_1_1_4
 E PB_2_4
 L Q_2_0_4
 L Q_2_1_4
 L TU_4
 G TL_4
 L ONE_4
 L SUL_4
 G SWR_0_4
 G SWR_1_4
 G SWR_2_4
 E CB_0_5
 E CB_1_5
 E CB_2_5
 E CB_3_5
 E CB_4_5
 E PB_0_5
 L Q_0_0_5
 L Q_0_1_5
 E PB_1_5
 L Q_1_0_5
 L Q_1_1_5
 E PB_2_5
 L Q_2_0_5
 L Q_2_1_5
 L TU_5
 G TL_5
 L ONE_5
 L SUL_5
 G SWR_0_5
 G SWR_1_5
 G SWR_2_5
 E CB_0_6
 E CB_1_6
 E CB_2_6
 E CB_3_6
 E CB_4_6
 E PB_0_6
 L Q_0_0_6
 L Q_0_1_6
 E PB_1_6
 L Q_1_0_6
 L Q_1_1_6
 E PB_2_6
 L Q_2_0_6
 L Q_2_1_6
 L TU_6
 G TL_6
 L ONE_6
 L SUL_6
 G SWR_0_6
 G SWR_1_6
 G SWR_2_6
 E CB_0_7
 E CB_1_7
 E CB_2_7
 E CB_3_7
 E CB_4_7
 E PB_0_7
 L Q_0_0_7
 L Q_0_1_7
 E PB_1_7
 L Q_1_0_7
 L Q_1_1_7
 E PB_2_7
 L Q_2_0_7
 L Q_2_1_7
 L TU_7
 G TL_7
 L ONE_7
 L SUL_7
 G SWR_0_7
 G SWR_1_7
 G SWR_2_7
 E CB_0_8
 E CB_1_8
 E CB_2_8
 E CB_3_8
 E CB_4_8
 E PB_0_8
 L Q_0_0_8
 L Q_0_1_8
 E PB_1_8
 L Q_1_0_8
 L Q_1_1_8
 E PB_2_8
 L Q_2_0_8
 L Q_2_1_8
 L TU_8
 G TL_8
 L ONE_8
 L SUL_8
 G SWR_0_8
 G SWR_1_8
 G SWR_2_8
 E CB_0_9
 E CB_1_9
 E CB_2_9
 E CB_3_9
 E CB_4_9
 E PB_0_9
 L Q_0_0_9
 L Q_0_1_9
 E PB_1_9
 L Q_1_0_9
 L Q_1_1_9
 E PB_2_9
 L Q_2_0_9
 L Q_2_1_9
 L TU_9
 G TL_9
 L ONE_9
 L SUL_9
 G SWR_0_9
 G SWR_1_9
 G SWR_2_9
 E CB_0_10
 E CB_1_10
 E CB_2_10
 E CB_3_10
 E CB_4_10
 E PB_0_10
 L Q_0_0_10
 L Q_0_1_10
 E PB_1_10
 L Q_1_0_10
 L Q_1_1_10
 E PB_2_10
 L Q_2_0_10
 L Q_2_1_10
 L TU_10
 G TL_10
 L ONE_10
 L SUL_10
 G SWR_0_10
 G SWR_1_10
 G SWR_2_10
 E CB_0_11
 E CB_1_11
 E CB_2_11
 E CB_3_11
 E CB_4_11
 E PB_0_11
 L Q_0_0_11
 L Q_0_1_11
 E PB_1_11
 L Q_1_0_11
 L Q_1_1_11
 E PB_2_11
 L Q_2_0_11
 L Q_2_1_11
 L TU_11
 G TL_11
 L ONE_11
 L SUL_11
 G SWR_0_11
 G SWR_1_11
 G SWR_2_11
COLUMNS
    MARKER 'MARKER' 'INTORG'
    NC_0_0 OBJ 22676.498
    NC_0_0 CB_0_0 300
    MARKER 'MARKER' 'INTEND'
    INV_0_0 OBJ 0.3
    INV_0_0 CB_0_0 -1
    INV_0_0 CB_0_1 1
    X_0_0_0 CB_0_0 -1
    X_0_0_0 PB_0_0 1
    X_0_0_0 Q_0_0_0 -0.412571
    X_0_0_0 Q_0_1_0 -0.318349
    X_0_0_0 TU_0 1
    X_0_0_0 TL_0 1
    X_0_0_0 SUL_0 0.2
    X_0_1_0 CB_0_0 -1
    X_0_1_0 PB_1_0 1
    X_0_1_0 Q_1_0_0 -0.505112
    X_0_1_0 Q_1_1_0 -0.749342
    X_0_1_0 TU_0 1
    X_0_1_0 TL_0 1
    X_0_1_0 SUL_0 0.2
    X_0_2_0 CB_0_0 -1
    X_0_2_0 PB_2_0 1
    X_0_2_0 Q_2_0_0 -0.58724
    X_0_2_0 Q_2_1_0 -0.340922
    X_0_2_0 TU_0 1
    X_0_2_0 TL_0 1
    X_0_2_0 SUL_0 0.2
    MARKER 'MARKER' 'INTORG'
    NC_1_0 OBJ 21351.292
    NC_1_0 CB_1_0 300
    MARKER 'MARKER' 'INTEND'
    INV_1_0 OBJ 0.3
    INV_1_0 CB_1_0 -1
    INV_1_0 CB_1_1 1
    X_1_0_0 CB_1_0 -1
    X_1_0_0 PB_0_0 1
    X_1_0_0 Q_0_0_0 0.104397
    X_1_0_0 Q_0_1_0 0.104263
    X_1_0_0 TU_0 1
    X_1_0_0 TL_0 1
    X_1_0_0 SUL_0 1.6721078
    X_1_1_0 CB_1_0 -1
    X_1_1_0 PB_1_0 1
    X_1_1_0 Q_1_0_0 0.011856
    X_1_1_0 Q_1_1_0 -0.32673
    X_1_1_0 TU_0 1
    X_1_1_0 TL_0 1
    X_1_1_0 SUL_0 1.6721078
    X_1_2_0 CB_1_0 -1
    X_1_2_0 PB_2_0 1
    X_1_2_0 Q_2_0_0 -0.070272
    X_1_2_0 Q_2_1_0 0.08169
    X_1_2_0 TU_0 1
    X_1_2_0 TL_0 1
    X_1_2_0 SUL_0 1.6721078
    MARKER 'MARKER' 'INTORG'
    NC_2_0 OBJ 19086.393
    NC_2_0 CB_2_0 300
    MARKER 'MARKER' 'INTEND'
    INV_2_0 OBJ 0.3
    INV_2_0 CB_2_0 -1
    INV_2_0 CB_2_1 1
    X_2_0_0 CB_2_0 -1
    X_2_0_0 PB_0_0 1
    X_2_0_0 Q_0_0_0 -0.157743
    X_2_0_0 Q_0_1_0 -0.284221
    X_2_0_0 TU_0 1
    X_2_0_0 TL_0 1
    X_2_0_0 SUL_0 1.769429
    X_2_1_0 CB_2_0 -1
    X_2_1_0 PB_1_0 1
    X_2_1_0 Q_1_0_0 -0.250283
    X_2_1_0 Q_1_1_0 -0.715214
    X_2_1_0 TU_0 1
    X_2_1_0 TL_0 1
    X_2_1_0 SUL_0 1.769429
    X_2_2_0 CB_2_0 -1
    X_2_2_0 PB_2_0 1
    X_2_2_0 Q_2_0_0 -0.332411
    X_2_2_0 Q_2_1_0 -0.306794
    X_2_2_0 TU_0 1
    X_2_2_0 TL_0 1
    X_2_2_0 SUL_0 1.769429
    MARKER 'MARKER' 'INTORG'
    NC_3_0 OBJ 32549.877
    NC_3_0 CB_3_0 500
    MARKER 'MARKER' 'INTEND'
    INV_3_0 OBJ 0.3
    INV_3_0 CB_3_0 -1
    INV_3_0 CB_3_1 1
    X_3_0_0 CB_3_0 -1
    X_3_0_0 PB_0_0 1
    X_3_0_0 Q_0_0_0 -0.386499
    X_3_0_0 Q_0_1_0 0.1233
    X_3_0_0 TU_0 1
    X_3_0_0 TL_0 1
    X_3_0_0 SUL_0 0.86114554
    X_3_1_0 CB_3_0 -1
    X_3_1_0 PB_1_0 1
    X_3_1_0 Q_1_0_0 -0.479039
    X_3_1_0 Q_1_1_0 -0.307693
    X_3_1_0 TU_0 1
    X_3_1_0 TL_0 1
    X_3_1_0 SUL_0 0.86114554
    X_3_2_0 CB_3_0 -1
    X_3_2_0 PB_2_0 1
    X_3_2_0 Q_2_0_0 -0.561167
    X_3_2_0 Q_2_1_0 0.100727
    X_3_2_0 TU_0 1
    X_3_2_0 TL_0 1
    X_3_2_0 SUL_0 0.86114554
    MARKER 'MARKER' 'INTORG'
    NC_4_0 OBJ 28331.298
    NC_4_0 CB_4_0 400
    MARKER 'MARKER' 'INTEND'
    INV_4_0 OBJ 0.3
    INV_4_0 CB_4_0 -1
    INV_4_0 CB_4_1 1
    X_4_0_0 CB_4_0 -1
    X_4_0_0 PB_0_0 1
    X_4_0_0 Q_0_0_0 -0.11003
    X_4_0_0 Q_0_1_0 0.042665
    X_4_0_0 TU_0 1
    X_4_0_0 TL_0 1
    X_4_0_0 SUL_0 0.26680262
    X_4_1_0 CB_4_0 -1
    X_4_1_0 PB_1_0 1
    X_4_1_0 Q_1_0_0 -0.20257
    X_4_1_0 Q_1_1_0 -0.388328
    X_4_1_0 TU_0 1
    X_4_1_0 TL_0 1
    X_4_1_0 SUL_0 0.26680262
    X_4_2_0 CB_4_0 -1
    X_4_2_0 PB_2_0 1
    X_4_2_0 Q_2_0_0 -0.284698
    X_4_2_0 Q_2_1_0 0.020092
    X_4_2_0 TU_0 1
    X_4_2_0 TL_0 1
    X_4_2_0 SUL_0 0.26680262
    MARKER 'MARKER' 'INTORG'
    Z_0_0 OBJ 3474.3691
    Z_0_0 TU_0 -240.18727
    Z_0_0 TL_0 -129.6
    Z_0_0 ONE_0 1
    Z_0_0 SUL_0 -492.25958
    Z_0_0 SWR_0_1 1
    Z_1_0 OBJ 3904.7523
    Z_1_0 TU_0 -442.79169
    Z_1_0 TL_0 -280.8
    Z_1_0 ONE_0 1
    Z_1_0 SUL_0 -1090.9747
    Z_1_0 SWR_1_1 1
    Z_2_0 OBJ 3287.8772
    Z_2_0 TU_0 -639.61589
    Z_2_0 TL_0 -432
    Z_2_0 ONE_0 1
    Z_2_0 SUL_0 -1300.0882
    Z_2_0 SWR_2_1 1
    MARKER 'MARKER' 'INTEND'
    SELL_0_0 OBJ -108.65315
    SELL_0_0 PB_0_0 -1
    PINV_0_0 OBJ 0.5
    PINV_0_0 PB_0_0 -1
    PINV_0_0 PB_0_1 1
    SELL_1_0 OBJ -100.02441
    SELL_1_0 PB_1_0 -1
    PINV_1_0 OBJ 0.5
    PINV_1_0 PB_1_0 -1
    PINV_1_0 PB_1_1 1
    SELL_2_0 OBJ -102.71383
    SELL_2_0 PB_2_0 -1
    PINV_2_0 OBJ 0.5
    PINV_2_0 PB_2_0 -1
    PINV_2_0 PB_2_1 1
    MARKER 'MARKER' 'INTORG'
    NC_0_1 OBJ 22326.643
    NC_0_1 CB_0_1 300
    MARKER 'MARKER' 'INTEND'
    INV_0_1 OBJ 0.3
    INV_0_1 CB_0_1 -1
    INV_0_1 CB_0_2 1
    X_0_0_1 CB_0_1 -1
    X_0_0_1 PB_0_1 1
    X_0_0_1 Q_0_0_1 -0.412571
    X_0_0_1 Q_0_1_1 -0.318349
    X_0_0_1 TU_1 1
    X_0_0_1 TL_1 1
    X_0_0_1 SUL_1 0.2
    X_0_1_1 CB_0_1 -1
    X_0_1_1 PB_1_1 1
    X_0_1_1 Q_1_0_1 -0.505112
    X_0_1_1 Q_1_1_1 -0.749342
    X_0_1_1 TU_1 1
    X_0_1_1 TL_1 1
    X_0_1_1 SUL_1 0.2
    X_0_2_1 CB_0_1 -1
    X_0_2_1 PB_2_1 1
    X_0_2_1 Q_2_0_1 -0.58724
    X_0_2_1 Q_2_1_1 -0.340922
    X_0_2_1 TU_1 1
    X_0_2_1 TL_1 1
    X_0_2_1 SUL_1 0.2
    MARKER 'MARKER' 'INTORG'
    NC_1_1 OBJ 21396.523
    NC_1_1 CB_1_1 300
    MARKER 'MARKER' 'INTEND'
    INV_1_1 OBJ 0.3
    INV_1_1 CB_1_1 -1
    INV_1_1 CB_1_2 1
    X_1_0_1 CB_1_1 -1
    X_1_0_1 PB_0_1 1
    X_1_0_1 Q_0_0_1 0.104397
    X_1_0_1 Q_0_1_1 0.104263
    X_1_0_1 TU_1 1
    X_1_0_1 TL_1 1
    X_1_0_1 SUL_1 1.6721078
    X_1_1_1 CB_1_1 -1
    X_1_1_1 PB_1_1 1
    X_1_1_1 Q_1_0_1 0.011856
    X_1_1_1 Q_1_1_1 -0.32673
    X_1_1_1 TU_1 1
    X_1_1_1 TL_1 1
    X_1_1_1 SUL_1 1.6721078
    X_1_2_1 CB_1_1 -1
    X_1_2_1 PB_2_1 1
    X_1_2_1 Q_2_0_1 -0.070272
    X_1_2_1 Q_2_1_1 0.08169
    X_1_2_1 TU_1 1
    X_1_2_1 TL_1 1
    X_1_2_1 SUL_1 1.6721078
    MARKER 'MARKER' 'INTORG'
    NC_2_1 OBJ 18153.371
    NC_2_1 CB_2_1 300
    MARKER 'MARKER' 'INTEND'
    INV_2_1 OBJ 0.3
    INV_2_1 CB_2_1 -1
    INV_2_1 CB_2_2 1
    X_2_0_1 CB_2_1 -1
    X_2_0_1 PB_0_1 1
    X_2_0_1 Q_0_0_1 -0.157743
    X_2_0_1 Q_0_1_1 -0.284221
    X_2_0_1 TU_1 1
    X_2_0_1 TL_1 1
    X_2_0_1 SUL_1 1.769429
    X_2_1_1 CB_2_1 -1
    X_2_1_1 PB_1_1 1
    X_2_1_1 Q_1_0_1 -0.250283
    X_2_1_1 Q_1_1_1 -0.715214
    X_2_1_1 TU_1 1
    X_2_1_1 TL_1 1
    X_2_1_1 SUL_1 1.769429
    X_2_2_1 CB_2_1 -1
    X_2_2_1 PB_2_1 1
    X_2_2_1 Q_2_0_1 -0.332411
    X_2_2_1 Q_2_1_1 -0.306794
    X_2_2_1 TU_1 1
    X_2_2_1 TL_1 1
    X_2_2_1 SUL_1 1.769429
    MARKER 'MARKER' 'INTORG'
    NC_3_1 OBJ 33859.953
    NC_3_1 CB_3_1 500
    MARKER 'MARKER' 'INTEND'
    INV_3_1 OBJ 0.3
    INV_3_1 CB_3_1 -1
    INV_3_1 CB_3_2 1
    X_3_0_1 CB_3_1 -1
    X_3_0_1 PB_0_1 1
    X_3_0_1 Q_0_0_1 -0.386499
    X_3_0_1 Q_0_1_1 0.1233
    X_3_0_1 TU_1 1
    X_3_0_1 TL_1 1
    X_3_0_1 SUL_1 0.86114554
    X_3_1_1 CB_3_1 -1
    X_3_1_1 PB_1_1 1
    X_3_1_1 Q_1_0_1 -0.479039
    X_3_1_1 Q_1_1_1 -0.307693
    X_3_1_1 TU_1 1
    X_3_1_1 TL_1 1
    X_3_1_1 SUL_1 0.86114554
    X_3_2_1 CB_3_1 -1
    X_3_2_1 PB_2_1 1
    X_3_2_1 Q_2_0_1 -0.561167
    X_3_2_1 Q_2_1_1 0.100727
    X_3_2_1 TU_1 1
    X_3_2_1 TL_1 1
    X_3_2_1 SUL_1 0.86114554
    MARKER 'MARKER' 'INTORG'
    NC_4_1 OBJ 27730.301
    NC_4_1 CB_4_1 400
    MARKER 'MARKER' 'INTEND'
    INV_4_1 OBJ 0.3
    INV_4_1 CB_4_1 -1
    INV_4_1 CB_4_2 1
    X_4_0_1 CB_4_1 -1
    X_4_0_1 PB_0_1 1
    X_4_0_1 Q_0_0_1 -0.11003
    X_4_0_1 Q_0_1_1 0.042665
    X_4_0_1 TU_1 1
    X_4_0_1 TL_1 1
    X_4_0_1 SUL_1 0.26680262
    X_4_1_1 CB_4_1 -1
    X_4_1_1 PB_1_1 1
    X_4_1_1 Q_1_0_1 -0.20257
    X_4_1_1 Q_1_1_1 -0.388328
    X_4_1_1 TU_1 1
    X_4_1_1 TL_1 1
    X_4_1_1 SUL_1 0.26680262
    X_4_2_1 CB_4_1 -1
    X_4_2_1 PB_2_1 1
    X_4_2_1 Q_2_0_1 -0.284698
    X_4_2_1 Q_2_1_1 0.020092
    X_4_2_1 TU_1 1
    X_4_2_1 TL_1 1
    X_4_2_1 SUL_1 0.26680262
    MARKER 'MARKER' 'INTORG'
    Z_0_1 OBJ 3474.3691
    Z_0_1 TU_1 -240.18727
    Z_0_1 TL_1 -129.6
    Z_0_1 ONE_1 1
    Z_0_1 SUL_1 -492.25958
    Z_0_1 SWR_0_1 -1
    Z_0_1 SWR_0_2 1
    Z_1_1 OBJ 3904.7523
    Z_1_1 TU_1 -442.79169
    Z_1_1 TL_1 -280.8
    Z_1_1 ONE_1 1
    Z_1_1 SUL_1 -1090.9747
    Z_1_1 SWR_1_1 -1
    Z_1_1 SWR_1_2 1
    Z_2_1 OBJ 3287.8772
    Z_2_1 TU_1 -639.61589
    Z_2_1 TL_1 -432
    Z_2_1 ONE_1 1
    Z_2_1 SUL_1 -1300.0882
    Z_2_1 SWR_2_1 -1
    Z_2_1 SWR_2_2 1
    MARKER 'MARKER' 'INTEND'
    SW_1 OBJ 5307.0335
    SW_1 SWR_0_1 1
    SW_1 SWR_1_1 1
    SW_1 SWR_2_1 1
    SELL_0_1 OBJ -108.46646
    SELL_0_1 PB_0_1 -1
    PINV_0_1 OBJ 0.5
    PINV_0_1 PB_0_1 -1
    PINV_0_1 PB_0_2 1
    SELL_1_1 OBJ -103.0692
    SELL_1_1 PB_1_1 -1
    PINV_1_1 OBJ 0.5
    PINV_1_1 PB_1_1 -1
    PINV_1_1 PB_1_2 1
    SELL_2_1 OBJ -101.5897
    SELL_2_1 PB_2_1 -1
    PINV_2_1 OBJ 0.5
    PINV_2_1 PB_2_1 -1
    PINV_2_1 PB_2_2 1
    MARKER 'MARKER' 'INTORG'
    NC_0_2 OBJ 22598.13
    NC_0_2 CB_0_2 300
    MARKER 'MARKER' 'INTEND'
    INV_0_2 OBJ 0.3
    INV_0_2 CB_0_2 -1
    INV_0_2 CB_0_3 1
    X_0_0_2 CB_0_2 -1
    X_0_0_2 PB_0_2 1
    X_0_0_2 Q_0_0_2 -0.412571
    X_0_0_2 Q_0_1_2 -0.318349
    X_0_0_2 TU_2 1
    X_0_0_2 TL_2 1
    X_0_0_2 SUL_2 0.2
    X_0_1_2 CB_0_2 -1
    X_0_1_2 PB_1_2 1
    X_0_1_2 Q_1_0_2 -0.505112
    X_0_1_2 Q_1_1_2 -0.749342
    X_0_1_2 TU_2 1
    X_0_1_2 TL_2 1
    X_0_1_2 SUL_2 0.2
    X_0_2_2 CB_0_2 -1
    X_0_2_2 PB_2_2 1
    X_0_2_2 Q_2_0_2 -0.58724
    X_0_2_2 Q_2_1_2 -0.340922
    X_0_2_2 TU_2 1
    X_0_2_2 TL_2 1
    X_0_2_2 SUL_2 0.2
    MARKER 'MARKER' 'INTORG'
    NC_1_2 OBJ 20134.373
    NC_1_2 CB_1_2 300
    MARKER 'MARKER' 'INTEND'
    INV_1_2 OBJ 0.3
    INV_1_2 CB_1_2 -1
    INV_1_2 CB_1_3 1
    X_1_0_2 CB_1_2 -1
    X_1_0_2 PB_0_2 1
    X_1_0_2 Q_0_0_2 0.104397
    X_1_0_2 Q_0_1_2 0.104263
    X_1_0_2 TU_2 1
    X_1_0_2 TL_2 1
    X_1_0_2 SUL_2 1.6721078
    X_1_1_2 CB_1_2 -1
    X_1_1_2 PB_1_2 1
    X_1_1_2 Q_1_0_2 0.011856
    X_1_1_2 Q_1_1_2 -0.32673
    X_1_1_2 TU_2 1
    X_1_1_2 TL_2 1
    X_1_1_2 SUL_2 1.6721078
    X_1_2_2 CB_1_2 -1
    X_1_2_2 PB_2_2 1
    X_1_2_2 Q_2_0_2 -0.070272
    X_1_2_2 Q_2_1_2 0.08169
    X_1_2_2 TU_2 1
    X_1_2_2 TL_2 1
    X_1_2_2 SUL_2 1.6721078
    MARKER 'MARKER' 'INTORG'
    NC_2_2 OBJ 18513.474
    NC_2_2 CB_2_2 300
    MARKER 'MARKER' 'INTEND'
    INV_2_2 OBJ 0.3
    INV_2_2 CB_2_2 -1
    INV_2_2 CB_2_3 1
    X_2_0_2 CB_2_2 -1
    X_2_0_2 PB_0_2 1
    X_2_0_2 Q_0_0_2 -0.157743
    X_2_0_2 Q_0_1_2 -0.284221
    X_2_0_2 TU_2 1
    X_2_0_2 TL_2 1
    X_2_0_2 SUL_2 1.769429
    X_2_1_2 CB_2_2 -1
    X_2_1_2 PB_1_2 1
    X_2_1_2 Q_1_0_2 -0.250283
    X_2_1_2 Q_1_1_2 -0.715214
    X_2_1_2 TU_2 1
    X_2_1_2 TL_2 1
    X_2_1_2 SUL_2 1.769429
    X_2_2_2 CB_2_2 -1
    X_2_2_2 PB_2_2 1
    X_2_2_2 Q_2_0_2 -0.332411
    X_2_2_2 Q_2_1_2 -0.306794
    X_2_2_2 TU_2 1
    X_2_2_2 TL_2 1
    X_2_2_2 SUL_2 1.769429
    MARKER 'MARKER' 'INTORG'
    NC_3_2 OBJ 33926.208
    NC_3_2 CB_3_2 500
    MARKER 'MARKER' 'INTEND'
    INV_3_2 OBJ 0.3
    INV_3_2 CB_3_2 -1
    INV_3_2 CB_3_3 1
    X_3_0_2 CB_3_2 -1
    X_3_0_2 PB_0_2 1
    X_3_0_2 Q_0_0_2 -0.386499
    X_3_0_2 Q_0_1_2 0.1233
    X_3_0_2 TU_2 1
    X_3_0_2 TL_2 1
    X_3_0_2 SUL_2 0.86114554
    X_3_1_2 CB_3_2 -1
    X_3_1_2 PB_1_2 1
    X_3_1_2 Q_1_0_2 -0.479039
    X_3_1_2 Q_1_1_2 -0.307693
    X_3_1_2 TU_2 1
    X_3_1_2 TL_2 1
    X_3_1_2 SUL_2 0.86114554
    X_3_2_2 CB_3_2 -1
    X_3_2_2 PB_2_2 1
    X_3_2_2 Q_2_0_2 -0.561167
    X_3_2_2 Q_2_1_2 0.100727
    X_3_2_2 TU_2 1
    X_3_2_2 TL_2 1
    X_3_2_2 SUL_2 0.86114554
    MARKER 'MARKER' 'INTORG'
    NC_4_2 OBJ 28460.65
    NC_4_2 CB_4_2 400
    MARKER 'MARKER' 'INTEND'
    INV_4_2 OBJ 0.3
    INV_4_2 CB_4_2 -1
    INV_4_2 CB_4_3 1
    X_4_0_2 CB_4_2 -1
    X_4_0_2 PB_0_2 1
    X_4_0_2 Q_0_0_2 -0.11003
    X_4_0_2 Q_0_1_2 0.042665
    X_4_0_2 TU_2 1
    X_4_0_2 TL_2 1
    X_4_0_2 SUL_2 0.26680262
    X_4_1_2 CB_4_2 -1
    X_4_1_2 PB_1_2 1
    X_4_1_2 Q_1_0_2 -0.20257
    X_4_1_2 Q_1_1_2 -0.388328
    X_4_1_2 TU_2 1
    X_4_1_2 TL_2 1
    X_4_1_2 SUL_2 0.26680262
    X_4_2_2 CB_4_2 -1
    X_4_2_2 PB_2_2 1
    X_4_2_2 Q_2_0_2 -0.284698
    X_4_2_2 Q_2_1_2 0.020092
    X_4_2_2 TU_2 1
    X_4_2_2 TL_2 1
    X_4_2_2 SUL_2 0.26680262
    MARKER 'MARKER' 'INTORG'
    Z_0_2 OBJ 3474.3691
    Z_0_2 TU_2 -240.18727
    Z_0_2 TL_2 -129.6
    Z_0_2 ONE_2 1
    Z_0_2 SUL_2 -492.25958
    Z_0_2 SWR_0_2 -1
    Z_0_2 SWR_0_3 1
    Z_1_2 OBJ 3904.7523
    Z_1_2 TU_2 -442.79169
    Z_1_2 TL_2 -280.8
    Z_1_2 ONE_2 1
    Z_1_2 SUL_2 -1090.9747
    Z_1_2 SWR_1_2 -1
    Z_1_2 SWR_1_3 1
    Z_2_2 OBJ 3287.8772
    Z_2_2 TU_2 -639.61589
    Z_2_2 TL_2 -432
    Z_2_2 ONE_2 1
    Z_2_2 SUL_2 -1300.0882
    Z_2_2 SWR_2_2 -1
    Z_2_2 SWR_2_3 1
    MARKER 'MARKER' 'INTEND'
    SW_2 OBJ 5307.0335
    SW_2 SWR_0_2 1
    SW_2 SWR_1_2 1
    SW_2 SWR_2_2 1
    SELL_0_2 OBJ -109.68005
    SELL_0_2 PB_0_2 -1
    PINV_0_2 OBJ 0.5
    PINV_0_2 PB_0_2 -1
    PINV_0_2 PB_0_3 1
    SELL_1_2 OBJ -107.08081
    SELL_1_2 PB_1_2 -1
    PINV_1_2 OBJ 0.5
    PINV_1_2 PB_1_2 -1
    PINV_1_2 PB_1_3 1
    SELL_2_2 OBJ -103.16912
    SELL_2_2 PB_2_2 -1
    PINV_2_2 OBJ 0.5
    PINV_2_2 PB_2_2 -1
    PINV_2_2 PB_2_3 1
    MARKER 'MARKER' 'INTORG'
    NC_0_3 OBJ 22126.79
    NC_0_3 CB_0_3 300
    MARKER 'MARKER' 'INTEND'
    INV_0_3 OBJ 0.3
    INV_0_3 CB_0_3 -1
    INV_0_3 CB_0_4 1
    X_0_0_3 CB_0_3 -1
    X_0_0_3 PB_0_3 1
    X_0_0_3 Q_0_0_3 -0.412571
    X_0_0_3 Q_0_1_3 -0.318349
    X_0_0_3 TU_3 1
    X_0_0_3 TL_3 1
    X_0_0_3 SUL_3 0.2
    X_0_1_3 CB_0_3 -1
    X_0_1_3 PB_1_3 1
    X_0_1_3 Q_1_0_3 -0.505112
    X_0_1_3 Q_1_1_3 -0.749342
    X_0_1_3 TU_3 1
    X_0_1_3 TL_3 1
    X_0_1_3 SUL_3 0.2
    X_0_2_3 CB_0_3 -1
    X_0_2_3 PB_2_3 1
    X_0_2_3 Q_2_0_3 -0.58724
    X_0_2_3 Q_2_1_3 -0.340922
    X_0_2_3 TU_3 1
    X_0_2_3 TL_3 1
    X_0_2_3 SUL_3 0.2
    MARKER 'MARKER' 'INTORG'
    NC_1_3 OBJ 20936.765
    NC_1_3 CB_1_3 300
    MARKER 'MARKER' 'INTEND'
    INV_1_3 OBJ 0.3
    INV_1_3 CB_1_3 -1
    INV_1_3 CB_1_4 1
    X_1_0_3 CB_1_3 -1
    X_1_0_3 PB_0_3 1
    X_1_0_3 Q_0_0_3 0.104397
    X_1_0_3 Q_0_1_3 0.104263
    X_1_0_3 TU_3 1
    X_1_0_3 TL_3 1
    X_1_0_3 SUL_3 1.6721078
    X_1_1_3 CB_1_3 -1
    X_1_1_3 PB_1_3 1
    X_1_1_3 Q_1_0_3 0.011856
    X_1_1_3 Q_1_1_3 -0.32673
    X_1_1_3 TU_3 1
    X_1_1_3 TL_3 1
    X_1_1_3 SUL_3 1.6721078
    X_1_2_3 CB_1_3 -1
    X_1_2_3 PB_2_3 1
    X_1_2_3 Q_2_0_3 -0.070272
    X_1_2_3 Q_2_1_3 0.08169
    X_1_2_3 TU_3 1
    X_1_2_3 TL_3 1
    X_1_2_3 SUL_3 1.6721078
    MARKER 'MARKER' 'INTORG'
    NC_2_3 OBJ 18160.702
    NC_2_3 CB_2_3 300
    MARKER 'MARKER' 'INTEND'
    INV_2_3 OBJ 0.3
    INV_2_3 CB_2_3 -1
    INV_2_3 CB_2_4 1
    X_2_0_3 CB_2_3 -1
    X_2_0_3 PB_0_3 1
    X_2_0_3 Q_0_0_3 -0.157743
    X_2_0_3 Q_0_1_3 -0.284221
    X_2_0_3 TU_3 1
    X_2_0_3 TL_3 1
    X_2_0_3 SUL_3 1.769429
    X_2_1_3 CB_2_3 -1
    X_2_1_3 PB_1_3 1
    X_2_1_3 Q_1_0_3 -0.250283
    X_2_1_3 Q_1_1_3 -0.715214
    X_2_1_3 TU_3 1
    X_2_1_3 TL_3 1
    X_2_1_3 SUL_3 1.769429
    X_2_2_3 CB_2_3 -1
    X_2_2_3 PB_2_3 1
    X_2_2_3 Q_2_0_3 -0.332411
    X_2_2_3 Q_2_1_3 -0.306794
    X_2_2_3 TU_3 1
    X_2_2_3 TL_3 1
    X_2_2_3 SUL_3 1.769429
    MARKER 'MARKER' 'INTORG'
    NC_3_3 OBJ 31868.04
    NC_3_3 CB_3_3 500
    MARKER 'MARKER' 'INTEND'
    INV_3_3 OBJ 0.3
    INV_3_3 CB_3_3 -1
    INV_3_3 CB_3_4 1
    X_3_0_3 CB_3_3 -1
    X_3_0_3 PB_0_3 1
    X_3_0_3 Q_0_0_3 -0.386499
    X_3_0_3 Q_0_1_3 0.1233
    X_3_0_3 TU_3 1
    X_3_0_3 TL_3 1
    X_3_0_3 SUL_3 0.86114554
    X_3_1_3 CB_3_3 -1
    X_3_1_3 PB_1_3 1
    X_3_1_3 Q_1_0_3 -0.479039
    X_3_1_3 Q_1_1_3 -0.307693
    X_3_1_3 TU_3 1
    X_3_1_3 TL_3 1
    X_3_1_3 SUL_3 0.86114554
    X_3_2_3 CB_3_3 -1
    X_3_2_3 PB_2_3 1
    X_3_2_3 Q_2_0_3 -0.561167
    X_3_2_3 Q_2_1_3 0.100727
    X_3_2_3 TU_3 1
    X_3_2_3 TL_3 1
    X_3_2_3 SUL_3 0.86114554
    MARKER 'MARKER' 'INTORG'
    NC_4_3 OBJ 29047.873
    NC_4_3 CB_4_3 400
    MARKER 'MARKER' 'INTEND'
    INV_4_3 OBJ 0.3
    INV_4_3 CB_4_3 -1
    INV_4_3 CB_4_4 1
    X_4_0_3 CB_4_3 -1
    X_4_0_3 PB_0_3 1
    X_4_0_3 Q_0_0_3 -0.11003
    X_4_0_3 Q_0_1_3 0.042665
    X_4_0_3 TU_3 1
    X_4_0_3 TL_3 1
    X_4_0_3 SUL_3 0.26680262
    X_4_1_3 CB_4_3 -1
    X_4_1_3 PB_1_3 1
    X_4_1_3 Q_1_0_3 -0.20257
    X_4_1_3 Q_1_1_3 -0.388328
    X_4_1_3 TU_3 1
    X_4_1_3 TL_3 1
    X_4_1_3 SUL_3 0.26680262
    X_4_2_3 CB_4_3 -1
    X_4_2_3 PB_2_3 1
    X_4_2_3 Q_2_0_3 -0.284698
    X_4_2_3 Q_2_1_3 0.020092
    X_4_2_3 TU_3 1
    X_4_2_3 TL_3 1
    X_4_2_3 SUL_3 0.26680262
    MARKER 'MARKER' 'INTORG'
    Z_0_3 OBJ 3474.3691
    Z_0_3 TU_3 -240.18727
    Z_0_3 TL_3 -129.6
    Z_0_3 ONE_3 1
    Z_0_3 SUL_3 -492.25958
    Z_0_3 SWR_0_3 -1
    Z_0_3 SWR_0_4 1
    Z_1_3 OBJ 3904.7523
    Z_1_3 TU_3 -442.79169
    Z_1_3 TL_3 -280.8
    Z_1_3 ONE_3 1
    Z_1_3 SUL_3 -1090.9747
    Z_1_3 SWR_1_3 -1
    Z_1_3 SWR_1_4 1
    Z_2_3 OBJ 3287.8772
    Z_2_3 TU_3 -639.61589
    Z_2_3 TL_3 -432
    Z_2_3 ONE_3 1
    Z_2_3 SUL_3 -1300.0882
    Z_2_3 SWR_2_3 -1
    Z_2_3 SWR_2_4 1
    MARKER 'MARKER' 'INTEND'
    SW_3 OBJ 5307.0335
    SW_3 SWR_0_3 1
    SW_3 SWR_1_3 1
    SW_3 SWR_2_3 1
    SELL_0_3 OBJ -106.51266
    SELL_0_3 PB_0_3 -1
    PINV_0_3 OBJ 0.5
    PINV_0_3 PB_0_3 -1
    PINV_0_3 PB_0_4 1
    SELL_1_3 OBJ -100.26126
    SELL_1_3 PB_1_3 -1
    PINV_1_3 OBJ 0.5
    PINV_1_3 PB_1_3 -1
    PINV_1_3 PB_1_4 1
    SELL_2_3 OBJ -104.53667
    SELL_2_3 PB_2_3 -1
    PINV_2_3 OBJ 0.5
    PINV_2_3 PB_2_3 -1
    PINV_2_3 PB_2_4 1
    MARKER 'MARKER' 'INTORG'
    NC_0_4 OBJ 22804.99
    NC_0_4 CB_0_4 300
    MARKER 'MARKER' 'INTEND'
    INV_0_4 OBJ 0.3
    INV_0_4 CB_0_4 -1
    INV_0_4 CB_0_5 1
    X_0_0_4 CB_0_4 -1
    X_0_0_4 PB_0_4 1
    X_0_0_4 Q_0_0_4 -0.412571
    X_0_0_4 Q_0_1_4 -0.318349
    X_0_0_4 TU_4 1
    X_0_0_4 TL_4 1
    X_0_0_4 SUL_4 0.2
    X_0_1_4 CB_0_4 -1
    X_0_1_4 PB_1_4 1
    X_0_1_4 Q_1_0_4 -0.505112
    X_0_1_4 Q_1_1_4 -0.749342
    X_0_1_4 TU_4 1
    X_0_1_4 TL_4 1
    X_0_1_4 SUL_4 0.2
    X_0_2_4 CB_0_4 -1
    X_0_2_4 PB_2_4 1
    X_0_2_4 Q_2_0_4 -0.58724
    X_0_2_4 Q_2_1_4 -0.340922
    X_0_2_4 TU_4 1
    X_0_2_4 TL_4 1
    X_0_2_4 SUL_4 0.2
    MARKER 'MARKER' 'INTORG'
    NC_1_4 OBJ 21052.233
    NC_1_4 CB_1_4 300
    MARKER 'MARKER' 'INTEND'
    INV_1_4 OBJ 0.3
    INV_1_4 CB_1_4 -1
    INV_1_4 CB_1_5 1
    X_1_0_4 CB_1_4 -1
    X_1_0_4 PB_0_4 1
    X_1_0_4 Q_0_0_4 0.104397
    X_1_0_4 Q_0_1_4 0.104263
    X_1_0_4 TU_4 1
    X_1_0_4 TL_4 1
    X_1_0_4 SUL_4 1.6721078
    X_1_1_4 CB_1_4 -1
    X_1_1_4 PB_1_4 1
    X_1_1_4 Q_1_0_4 0.011856
    X_1_1_4 Q_1_1_4 -0.32673
    X_1_1_4 TU_4 1
    X_1_1_4 TL_4 1
    X_1_1_4 SUL_4 1.6721078
    X_1_2_4 CB_1_4 -1
    X_1_2_4 PB_2_4 1
    X_1_2_4 Q_2_0_4 -0.070272
    X_1_2_4 Q_2_1_4 0.08169
    X_1_2_4 TU_4 1
    X_1_2_4 TL_4 1
    X_1_2_4 SUL_4 1.6721078
    MARKER 'MARKER' 'INTORG'
    NC_2_4 OBJ 17804.332
    NC_2_4 CB_2_4 300
    MARKER 'MARKER' 'INTEND'
    INV_2_4 OBJ 0.3
    INV_2_4 CB_2_4 -1
    INV_2_4 CB_2_5 1
    X_2_0_4 CB_2_4 -1
    X_2_0_4 PB_0_4 1
    X_2_0_4 Q_0_0_4 -0.157743
    X_2_0_4 Q_0_1_4 -0.284221
    X_2_0_4 TU_4 1
    X_2_0_4 TL_4 1
    X_2_0_4 SUL_4 1.769429
    X_2_1_4 CB_2_4 -1
    X_2_1_4 PB_1_4 1
    X_2_1_4 Q_1_0_4 -0.250283
    X_2_1_4 Q_1_1_4 -0.715214
    X_2_1_4 TU_4 1
    X_2_1_4 TL_4 1
    X_2_1_4 SUL_4 1.769429
    X_2_2_4 CB_2_4 -1
    X_2_2_4 PB_2_4 1
    X_2_2_4 Q_2_0_4 -0.332411
    X_2_2_4 Q_2_1_4 -0.306794
    X_2_2_4 TU_4 1
    X_2_2_4 TL_4 1
    X_2_2_4 SUL_4 1.769429
    MARKER 'MARKER' 'INTORG'
    NC_3_4 OBJ 32262.898
    NC_3_4 CB_3_4 500
    MARKER 'MARKER' 'INTEND'
    INV_3_4 OBJ 0.3
    INV_3_4 CB_3_4 -1
    INV_3_4 CB_3_5 1
    X_3_0_4 CB_3_4 -1
    X_3_0_4 PB_0_4 1
    X_3_0_4 Q_0_0_4 -0.386499
    X_3_0_4 Q_0_1_4 0.1233
    X_3_0_4 TU_4 1
    X_3_0_4 TL_4 1
    X_3_0_4 SUL_4 0.86114554
    X_3_1_4 CB_3_4 -1
    X_3_1_4 PB_1_4 1
    X_3_1_4 Q_1_0_4 -0.479039
    X_3_1_4 Q_1_1_4 -0.307693
    X_3_1_4 TU_4 1
    X_3_1_4 TL_4 1
    X_3_1_4 SUL_4 0.86114554
    X_3_2_4 CB_3_4 -1
    X_3_2_4 PB_2_4 1
    X_3_2_4 Q_2_0_4 -0.561167
    X_3_2_4 Q_2_1_4 0.100727
    X_3_2_4 TU_4 1
    X_3_2_4 TL_4 1
    X_3_2_4 SUL_4 0.86114554
    MARKER 'MARKER' 'INTORG'
    NC_4_4 OBJ 27409.755
    NC_4_4 CB_4_4 400
    MARKER 'MARKER' 'INTEND'
    INV_4_4 OBJ 0.3
    INV_4_4 CB_4_4 -1
    INV_4_4 CB_4_5 1
    X_4_0_4 CB_4_4 -1
    X_4_0_4 PB_0_4 1
    X_4_0_4 Q_0_0_4 -0.11003
    X_4_0_4 Q_0_1_4 0.042665
    X_4_0_4 TU_4 1
    X_4_0_4 TL_4 1
    X_4_0_4 SUL_4 0.26680262
    X_4_1_4 CB_4_4 -1
    X_4_1_4 PB_1_4 1
    X_4_1_4 Q_1_0_4 -0.20257
    X_4_1_4 Q_1_1_4 -0.388328
    X_4_1_4 TU_4 1
    X_4_1_4 TL_4 1
    X_4_1_4 SUL_4 0.26680262
    X_4_2_4 CB_4_4 -1
    X_4_2_4 PB_2_4 1
    X_4_2_4 Q_2_0_4 -0.284698
    X_4_2_4 Q_2_1_4 0.020092
    X_4_2_4 TU_4 1
    X_4_2_4 TL_4 1
    X_4_2_4 SUL_4 0.26680262
    MARKER 'MARKER' 'INTORG'
    Z_0_4 OBJ 3474.3691
    Z_0_4 TU_4 -240.18727
    Z_0_4 TL_4 -129.6
    Z_0_4 ONE_4 1
    Z_0_4 SUL_4 -492.25958
    Z_0_4 SWR_0_4 -1
    Z_0_4 SWR_0_5 1
    Z_1_4 OBJ 3904.7523
    Z_1_4 TU_4 -442.79169
    Z_1_4 TL_4 -280.8
    Z_1_4 ONE_4 1
    Z_1_4 SUL_4 -1090.9747
    Z_1_4 SWR_1_4 -1
    Z_1_4 SWR_1_5 1
    Z_2_4 OBJ 3287.8772
    Z_2_4 TU_4 -639.61589
    Z_2_4 TL_4 -432
    Z_2_4 ONE_4 1
    Z_2_4 SUL_4 -1300.0882
    Z_2_4 SWR_2_4 -1
    Z_2_4 SWR_2_5 1
    MARKER 'MARKER' 'INTEND'
    SW_4 OBJ 5307.0335
    SW_4 SWR_0_4 1
    SW_4 SWR_1_4 1
    SW_4 SWR_2_4 1
    SELL_0_4 OBJ -101.84231
    SELL_0_4 PB_0_4 -1
    PINV_0_4 OBJ 0.5
    PINV_0_4 PB_0_4 -1
    PINV_0_4 PB_0_5 1
    SELL_1_4 OBJ -98.003031
    SELL_1_4 PB_1_4 -1
    PINV_1_4 OBJ 0.5
    PINV_1_4 PB_1_4 -1
    PINV_1_4 PB_1_5 1
    SELL_2_4 OBJ -95.881794
    SELL_2_4 PB_2_4 -1
    PINV_2_4 OBJ 0.5
    PINV_2_4 PB_2_4 -1
    PINV_2_4 PB_2_5 1
    MARKER 'MARKER' 'INTORG'
    NC_0_5 OBJ 22493.55
    NC_0_5 CB_0_5 300
    MARKER 'MARKER' 'INTEND'
    INV_0_5 OBJ 0.3
    INV_0_5 CB_0_5 -1
    INV_0_5 CB_0_6 1
    X_0_0_5 CB_0_5 -1
    X_0_0_5 PB_0_5 1
    X_0_0_5 Q_0_0_5 -0.412571
    X_0_0_5 Q_0_1_5 -0.318349
    X_0_0_5 TU_5 1
    X_0_0_5 TL_5 1
    X_0_0_5 SUL_5 0.2
    X_0_1_5 CB_0_5 -1
    X_0_1_5 PB_1_5 1
    X_0_1_5 Q_1_0_5 -0.505112
    X_0_1_5 Q_1_1_5 -0.749342
    X_0_1_5 TU_5 1
    X_0_1_5 TL_5 1
    X_0_1_5 SUL_5 0.2
    X_0_2_5 CB_0_5 -1
    X_0_2_5 PB_2_5 1
    X_0_2_5 Q_2_0_5 -0.58724
    X_0_2_5 Q_2_1_5 -0.340922
    X_0_2_5 TU_5 1
    X_0_2_5 TL_5 1
    X_0_2_5 SUL_5 0.2
    MARKER 'MARKER' 'INTORG'
    NC_1_5 OBJ 21226.007
    NC_1_5 CB_1_5 300
    MARKER 'MARKER' 'INTEND'
    INV_1_5 OBJ 0.3
    INV_1_5 CB_1_5 -1
    INV_1_5 CB_1_6 1
    X_1_0_5 CB_1_5 -1
    X_1_0_5 PB_0_5 1
    X_1_0_5 Q_0_0_5 0.104397
    X_1_0_5 Q_0_1_5 0.104263
    X_1_0_5 TU_5 1
    X_1_0_5 TL_5 1
    X_1_0_5 SUL_5 1.6721078
    X_1_1_5 CB_1_5 -1
    X_1_1_5 PB_1_5 1
    X_1_1_5 Q_1_0_5 0.011856
    X_1_1_5 Q_1_1_5 -0.32673
    X_1_1_5 TU_5 1
    X_1_1_5 TL_5 1
    X_1_1_5 SUL_5 1.6721078
    X_1_2_5 CB_1_5 -1
    X_1_2_5 PB_2_5 1
    X_1_2_5 Q_2_0_5 -0.070272
    X_1_2_5 Q_2_1_5 0.08169
    X_1_2_5 TU_5 1
    X_1_2_5 TL_5 1
    X_1_2_5 SUL_5 1.6721078
    MARKER 'MARKER' 'INTORG'
    NC_2_5 OBJ 17989.36
    NC_2_5 CB_2_5 300
    MARKER 'MARKER' 'INTEND'
    INV_2_5 OBJ 0.3
    INV_2_5 CB_2_5 -1
    INV_2_5 CB_2_6 1
    X_2_0_5 CB_2_5 -1
    X_2_0_5 PB_0_5 1
    X_2_0_5 Q_0_0_5 -0.157743
    X_2_0_5 Q_0_1_5 -0.284221
    X_2_0_5 TU_5 1
    X_2_0_5 TL_5 1
    X_2_0_5 SUL_5 1.769429
    X_2_1_5 CB_2_5 -1
    X_2_1_5 PB_1_5 1
    X_2_1_5 Q_1_0_5 -0.250283
    X_2_1_5 Q_1_1_5 -0.715214
    X_2_1_5 TU_5 1
    X_2_1_5 TL_5 1
    X_2_1_5 SUL_5 1.769429
    X_2_2_5 CB_2_5 -1
    X_2_2_5 PB_2_5 1
    X_2_2_5 Q_2_0_5 -0.332411
    X_2_2_5 Q_2_1_5 -0.306794
    X_2_2_5 TU_5 1
    X_2_2_5 TL_5 1
    X_2_2_5 SUL_5 1.769429
    MARKER 'MARKER' 'INTORG'
    NC_3_5 OBJ 31743.312
    NC_3_5 CB_3_5 500
    MARKER 'MARKER' 'INTEND'
    INV_3_5 OBJ 0.3
    INV_3_5 CB_3_5 -1
    INV_3_5 CB_3_6 1
    X_3_0_5 CB_3_5 -1
    X_3_0_5 PB_0_5 1
    X_3_0_5 Q_0_0_5 -0.386499
    X_3_0_5 Q_0_1_5 0.1233
    X_3_0_5 TU_5 1
    X_3_0_5 TL_5 1
    X_3_0_5 SUL_5 0.86114554
    X_3_1_5 CB_3_5 -1
    X_3_1_5 PB_1_5 1
    X_3_1_5 Q_1_0_5 -0.479039
    X_3_1_5 Q_1_1_5 -0.307693
    X_3_1_5 TU_5 1
    X_3_1_5 TL_5 1
    X_3_1_5 SUL_5 0.86114554
    X_3_2_5 CB_3_5 -1
    X_3_2_5 PB_2_5 1
    X_3_2_5 Q_2_0_5 -0.561167
    X_3_2_5 Q_2_1_5 0.100727
    X_3_2_5 TU_5 1
    X_3_2_5 TL_5 1
    X_3_2_5 SUL_5 0.86114554
    MARKER 'MARKER' 'INTORG'
    NC_4_5 OBJ 28619.502
    NC_4_5 CB_4_5 400
    MARKER 'MARKER' 'INTEND'
    INV_4_5 OBJ 0.3
    INV_4_5 CB_4_5 -1
    INV_4_5 CB_4_6 1
    X_4_0_5 CB_4_5 -1
    X_4_0_5 PB_0_5 1
    X_4_0_5 Q_0_0_5 -0.11003
    X_4_0_5 Q_0_1_5 0.042665
    X_4_0_5 TU_5 1
    X_4_0_5 TL_5 1
    X_4_0_5 SUL_5 0.26680262
    X_4_1_5 CB_4_5 -1
    X_4_1_5 PB_1_5 1
    X_4_1_5 Q_1_0_5 -0.20257
    X_4_1_5 Q_1_1_5 -0.388328
    X_4_1_5 TU_5 1
    X_4_1_5 TL_5 1
    X_4_1_5 SUL_5 0.26680262
    X_4_2_5 CB_4_5 -1
    X_4_2_5 PB_2_5 1
    X_4_2_5 Q_2_0_5 -0.284698
    X_4_2_5 Q_2_1_5 0.020092
    X_4_2_5 TU_5 1
    X_4_2_5 TL_5 1
    X_4_2_5 SUL_5 0.26680262
    MARKER 'MARKER' 'INTORG'
    Z_0_5 OBJ 3474.3691
    Z_0_5 TU_5 -240.18727
    Z_0_5 TL_5 -129.6
    Z_0_5 ONE_5 1
    Z_0_5 SUL_5 -492.25958
    Z_0_5 SWR_0_5 -1
    Z_0_5 SWR_0_6 1
    Z_1_5 OBJ 3904.7523
    Z_1_5 TU_5 -442.79169
    Z_1_5 TL_5 -280.8
    Z_1_5 ONE_5 1
    Z_1_5 SUL_5 -1090.9747
    Z_1_5 SWR_1_5 -1
    Z_1_5 SWR_1_6 1
    Z_2_5 OBJ 3287.8772
    Z_2_5 TU_5 -639.61589
    Z_2_5 TL_5 -432
    Z_2_5 ONE_5 1
    Z_2_5 SUL_5 -1300.0882
    Z_2_5 SWR_2_5 -1
    Z_2_5 SWR_2_6 1
    MARKER 'MARKER' 'INTEND'
    SW_5 OBJ 5307.0335
    SW_5 SWR_0_5 1
    SW_5 SWR_1_5 1
    SW_5 SWR_2_5 1
    SELL_0_5 OBJ -101.41995
    SELL_0_5 PB_0_5 -1
    PINV_0_5 OBJ 0.5
    PINV_0_5 PB_0_5 -1
    PINV_0_5 PB_0_6 1
    SELL_1_5 OBJ -99.300177
    SELL_1_5 PB_1_5 -1
    PINV_1_5 OBJ 0.5
    PINV_1_5 PB_1_5 -1
    PINV_1_5 PB_1_6 1
    SELL_2_5 OBJ -99.1351
    SELL_2_5 PB_2_5 -1
    PINV_2_5 OBJ 0.5
    PINV_2_5 PB_2_5 -1
    PINV_2_5 PB_2_6 1
    MARKER 'MARKER' 'INTORG'
    NC_0_6 OBJ 23163.165
    NC_0_6 CB_0_6 300
    MARKER 'MARKER' 'INTEND'
    INV_0_6 OBJ 0.3
    INV_0_6 CB_0_6 -1
    INV_0_6 CB_0_7 1
    X_0_0_6 CB_0_6 -1
    X_0_0_6 PB_0_6 1
    X_0_0_6 Q_0_0_6 -0.412571
    X_0_0_6 Q_0_1_6 -0.318349
    X_0_0_6 TU_6 1
    X_0_0_6 TL_6 1
    X_0_0_6 SUL_6 0.2
    X_0_1_6 CB_0_6 -1
    X_0_1_6 PB_1_6 1
    X_0_1_6 Q_1_0_6 -0.505112
    X_0_1_6 Q_1_1_6 -0.749342
    X_0_1_6 TU_6 1
    X_0_1_6 TL_6 1
    X_0_1_6 SUL_6 0.2
    X_0_2_6 CB_0_6 -1
    X_0_2_6 PB_2_6 1
    X_0_2_6 Q_2_0_6 -0.58724
    X_0_2_6 Q_2_1_6 -0.340922
    X_0_2_6 TU_6 1
    X_0_2_6 TL_6 1
    X_0_2_6 SUL_6 0.2
    MARKER 'MARKER' 'INTORG'
    NC_1_6 OBJ 21098.201
    NC_1_6 CB_1_6 300
    MARKER 'MARKER' 'INTEND'
    INV_1_6 OBJ 0.3
    INV_1_6 CB_1_6 -1
    INV_1_6 CB_1_7 1
    X_1_0_6 CB_1_6 -1
    X_1_0_6 PB_0_6 1
    X_1_0_6 Q_0_0_6 0.104397
    X_1_0_6 Q_0_1_6 0.104263
    X_1_0_6 TU_6 1
    X_1_0_6 TL_6 1
    X_1_0_6 SUL_6 1.6721078
    X_1_1_6 CB_1_6 -1
    X_1_1_6 PB_1_6 1
    X_1_1_6 Q_1_0_6 0.011856
    X_1_1_6 Q_1_1_6 -0.32673
    X_1_1_6 TU_6 1
    X_1_1_6 TL_6 1
    X_1_1_6 SUL_6 1.6721078
    X_1_2_6 CB_1_6 -1
    X_1_2_6 PB_2_6 1
    X_1_2_6 Q_2_0_6 -0.070272
    X_1_2_6 Q_2_1_6 0.08169
    X_1_2_6 TU_6 1
    X_1_2_6 TL_6 1
    X_1_2_6 SUL_6 1.6721078
    MARKER 'MARKER' 'INTORG'
    NC_2_6 OBJ 17924.353
    NC_2_6 CB_2_6 300
    MARKER 'MARKER' 'INTEND'
    INV_2_6 OBJ 0.3
    INV_2_6 CB_2_6 -1
    INV_2_6 CB_2_7 1
    X_2_0_6 CB_2_6 -1
    X_2_0_6 PB_0_6 1
    X_2_0_6 Q_0_0_6 -0.157743
    X_2_0_6 Q_0_1_6 -0.284221
    X_2_0_6 TU_6 1
    X_2_0_6 TL_6 1
    X_2_0_6 SUL_6 1.769429
    X_2_1_6 CB_2_6 -1
    X_2_1_6 PB_1_6 1
    X_2_1_6 Q_1_0_6 -0.250283
    X_2_1_6 Q_1_1_6 -0.715214
    X_2_1_6 TU_6 1
    X_2_1_6 TL_6 1
    X_2_1_6 SUL_6 1.769429
    X_2_2_6 CB_2_6 -1
    X_2_2_6 PB_2_6 1
    X_2_2_6 Q_2_0_6 -0.332411
    X_2_2_6 Q_2_1_6 -0.306794
    X_2_2_6 TU_6 1
    X_2_2_6 TL_6 1
    X_2_2_6 SUL_6 1.769429
    MARKER 'MARKER' 'INTORG'
    NC_3_6 OBJ 32189.758
    NC_3_6 CB_3_6 500
    MARKER 'MARKER' 'INTEND'
    INV_3_6 OBJ 0.3
    INV_3_6 CB_3_6 -1
    INV_3_6 CB_3_7 1
    X_3_0_6 CB_3_6 -1
    X_3_0_6 PB_0_6 1
    X_3_0_6 Q_0_0_6 -0.386499
    X_3_0_6 Q_0_1_6 0.1233
    X_3_0_6 TU_6 1
    X_3_0_6 TL_6 1
    X_3_0_6 SUL_6 0.86114554
    X_3_1_6 CB_3_6 -1
    X_3_1_6 PB_1_6 1
    X_3_1_6 Q_1_0_6 -0.479039
    X_3_1_6 Q_1_1_6 -0.307693
    X_3_1_6 TU_6 1
    X_3_1_6 TL_6 1
    X_3_1_6 SUL_6 0.86114554
    X_3_2_6 CB_3_6 -1
    X_3_2_6 PB_2_6 1
    X_3_2_6 Q_2_0_6 -0.561167
    X_3_2_6 Q_2_1_6 0.100727
    X_3_2_6 TU_6 1
    X_3_2_6 TL_6 1
    X_3_2_6 SUL_6 0.86114554
    MARKER 'MARKER' 'INTORG'
    NC_4_6 OBJ 27081.321
    NC_4_6 CB_4_6 400
    MARKER 'MARKER' 'INTEND'
    INV_4_6 OBJ 0.3
    INV_4_6 CB_4_6 -1
    INV_4_6 CB_4_7 1
    X_4_0_6 CB_4_6 -1
    X_4_0_6 PB_0_6 1
    X_4_0_6 Q_0_0_6 -0.11003
    X_4_0_6 Q_0_1_6 0.042665
    X_4_0_6 TU_6 1
    X_4_0_6 TL_6 1
    X_4_0_6 SUL_6 0.26680262
    X_4_1_6 CB_4_6 -1
    X_4_1_6 PB_1_6 1
    X_4_1_6 Q_1_0_6 -0.20257
    X_4_1_6 Q_1_1_6 -0.388328
    X_4_1_6 TU_6 1
    X_4_1_6 TL_6 1
    X_4_1_6 SUL_6 0.26680262
    X_4_2_6 CB_4_6 -1
    X_4_2_6 PB_2_6 1
    X_4_2_6 Q_2_0_6 -0.284698
    X_4_2_6 Q_2_1_6 0.020092
    X_4_2_6 TU_6 1
    X_4_2_6 TL_6 1
    X_4_2_6 SUL_6 0.26680262
    MARKER 'MARKER' 'INTORG'
    Z_0_6 OBJ 3474.3691
    Z_0_6 TU_6 -240.18727
    Z_0_6 TL_6 -129.6
    Z_0_6 ONE_6 1
    Z_0_6 SUL_6 -492.25958
    Z_0_6 SWR_0_6 -1
    Z_0_6 SWR_0_7 1
    Z_1_6 OBJ 3904.7523
    Z_1_6 TU_6 -442.79169
    Z_1_6 TL_6 -280.8
    Z_1_6 ONE_6 1
    Z_1_6 SUL_6 -1090.9747
    Z_1_6 SWR_1_6 -1
    Z_1_6 SWR_1_7 1
    Z_2_6 OBJ 3287.8772
    Z_2_6 TU_6 -639.61589
    Z_2_6 TL_6 -432
    Z_2_6 ONE_6 1
    Z_2_6 SUL_6 -1300.0882
    Z_2_6 SWR_2_6 -1
    Z_2_6 SWR_2_7 1
    MARKER 'MARKER' 'INTEND'
    SW_6 OBJ 5307.0335
    SW_6 SWR_0_6 1
    SW_6 SWR_1_6 1
    SW_6 SWR_2_6 1
    SELL_0_6 OBJ -109.1016
    SELL_0_6 PB_0_6 -1
    PINV_0_6 OBJ 0.5
    PINV_0_6 PB_0_6 -1
    PINV_0_6 PB_0_7 1
    SELL_1_6 OBJ -107.02285
    SELL_1_6 PB_1_6 -1
    PINV_1_6 OBJ 0.5
    PINV_1_6 PB_1_6 -1
    PINV_1_6 PB_1_7 1
    SELL_2_6 OBJ -104.35404
    SELL_2_6 PB_2_6 -1
    PINV_2_6 OBJ 0.5
    PINV_2_6 PB_2_6 -1
    PINV_2_6 PB_2_7 1
    MARKER 'MARKER' 'INTORG'
    NC_0_7 OBJ 23330.975
    NC_0_7 CB_0_7 300
    MARKER 'MARKER' 'INTEND'
    INV_0_7 OBJ 0.3
    INV_0_7 CB_0_7 -1
    INV_0_7 CB_0_8 1
    X_0_0_7 CB_0_7 -1
    X_0_0_7 PB_0_7 1
    X_0_0_7 Q_0_0_7 -0.412571
    X_0_0_7 Q_0_1_7 -0.318349
    X_0_0_7 TU_7 1
    X_0_0_7 TL_7 1
    X_0_0_7 SUL_7 0.2
    X_0_1_7 CB_0_7 -1
    X_0_1_7 PB_1_7 1
    X_0_1_7 Q_1_0_7 -0.505112
    X_0_1_7 Q_1_1_7 -0.749342
    X_0_1_7 TU_7 1
    X_0_1_7 TL_7 1
    X_0_1_7 SUL_7 0.2
    X_0_2_7 CB_0_7 -1
    X_0_2_7 PB_2_7 1
    X_0_2_7 Q_2_0_7 -0.58724
    X_0_2_7 Q_2_1_7 -0.340922
    X_0_2_7 TU_7 1
    X_0_2_7 TL_7 1
    X_0_2_7 SUL_7 0.2
    MARKER 'MARKER' 'INTORG'
    NC_1_7 OBJ 20612.033
    NC_1_7 CB_1_7 300
    MARKER 'MARKER' 'INTEND'
    INV_1_7 OBJ 0.3
    INV_1_7 CB_1_7 -1
    INV_1_7 CB_1_8 1
    X_1_0_7 CB_1_7 -1
    X_1_0_7 PB_0_7 1
    X_1_0_7 Q_0_0_7 0.104397
    X_1_0_7 Q_0_1_7 0.104263
    X_1_0_7 TU_7 1
    X_1_0_7 TL_7 1
    X_1_0_7 SUL_7 1.6721078
    X_1_1_7 CB_1_7 -1
    X_1_1_7 PB_1_7 1
    X_1_1_7 Q_1_0_7 0.011856
    X_1_1_7 Q_1_1_7 -0.32673
    X_1_1_7 TU_7 1
    X_1_1_7 TL_7 1
    X_1_1_7 SUL_7 1.6721078
    X_1_2_7 CB_1_7 -1
    X_1_2_7 PB_2_7 1
    X_1_2_7 Q_2_0_7 -0.070272
    X_1_2_7 Q_2_1_7 0.08169
    X_1_2_7 TU_7 1
    X_1_2_7 TL_7 1
    X_1_2_7 SUL_7 1.6721078
    MARKER 'MARKER' 'INTORG'
    NC_2_7 OBJ 18090.422
    NC_2_7 CB_2_7 300
    MARKER 'MARKER' 'INTEND'
    INV_2_7 OBJ 0.3
    INV_2_7 CB_2_7 -1
    INV_2_7 CB_2_8 1
    X_2_0_7 CB_2_7 -1
    X_2_0_7 PB_0_7 1
    X_2_0_7 Q_0_0_7 -0.157743
    X_2_0_7 Q_0_1_7 -0.284221
    X_2_0_7 TU_7 1
    X_2_0_7 TL_7 1
    X_2_0_7 SUL_7 1.769429
    X_2_1_7 CB_2_7 -1
    X_2_1_7 PB_1_7 1
    X_2_1_7 Q_1_0_7 -0.250283
    X_2_1_7 Q_1_1_7 -0.715214
    X_2_1_7 TU_7 1
    X_2_1_7 TL_7 1
    X_2_1_7 SUL_7 1.769429
    X_2_2_7 CB_2_7 -1
    X_2_2_7 PB_2_7 1
    X_2_2_7 Q_2_0_7 -0.332411
    X_2_2_7 Q_2_1_7 -0.306794
    X_2_2_7 TU_7 1
    X_2_2_7 TL_7 1
    X_2_2_7 SUL_7 1.769429
    MARKER 'MARKER' 'INTORG'
    NC_3_7 OBJ 33131.126
    NC_3_7 CB_3_7 500
    MARKER 'MARKER' 'INTEND'
    INV_3_7 OBJ 0.3
    INV_3_7 CB_3_7 -1
    INV_3_7 CB_3_8 1
    X_3_0_7 CB_3_7 -1
    X_3_0_7 PB_0_7 1
    X_3_0_7 Q_0_0_7 -0.386499
    X_3_0_7 Q_0_1_7 0.1233
    X_3_0_7 TU_7 1
    X_3_0_7 TL_7 1
    X_3_0_7 SUL_7 0.86114554
    X_3_1_7 CB_3_7 -1
    X_3_1_7 PB_1_7 1
    X_3_1_7 Q_1_0_7 -0.479039
    X_3_1_7 Q_1_1_7 -0.307693
    X_3_1_7 TU_7 1
    X_3_1_7 TL_7 1
    X_3_1_7 SUL_7 0.86114554
    X_3_2_7 CB_3_7 -1
    X_3_2_7 PB_2_7 1
    X_3_2_7 Q_2_0_7 -0.561167
    X_3_2_7 Q_2_1_7 0.100727
    X_3_2_7 TU_7 1
    X_3_2_7 TL_7 1
    X_3_2_7 SUL_7 0.86114554
    MARKER 'MARKER' 'INTORG'
    NC_4_7 OBJ 27746
    NC_4_7 CB_4_7 400
    MARKER 'MARKER' 'INTEND'
    INV_4_7 OBJ 0.3
    INV_4_7 CB_4_7 -1
    INV_4_7 CB_4_8 1
    X_4_0_7 CB_4_7 -1
    X_4_0_7 PB_0_7 1
    X_4_0_7 Q_0_0_7 -0.11003
    X_4_0_7 Q_0_1_7 0.042665
    X_4_0_7 TU_7 1
    X_4_0_7 TL_7 1
    X_4_0_7 SUL_7 0.26680262
    X_4_1_7 CB_4_7 -1
    X_4_1_7 PB_1_7 1
    X_4_1_7 Q_1_0_7 -0.20257
    X_4_1_7 Q_1_1_7 -0.388328
    X_4_1_7 TU_7 1
    X_4_1_7 TL_7 1
    X_4_1_7 SUL_7 0.26680262
    X_4_2_7 CB_4_7 -1
    X_4_2_7 PB_2_7 1
    X_4_2_7 Q_2_0_7 -0.284698
    X_4_2_7 Q_2_1_7 0.020092
    X_4_2_7 TU_7 1
    X_4_2_7 TL_7 1
    X_4_2_7 SUL_7 0.26680262
    MARKER 'MARKER' 'INTORG'
    Z_0_7 OBJ 3474.3691
    Z_0_7 TU_7 -240.18727
    Z_0_7 TL_7 -129.6
    Z_0_7 ONE_7 1
    Z_0_7 SUL_7 -492.25958
    Z_0_7 SWR_0_7 -1
    Z_0_7 SWR_0_8 1
    Z_1_7 OBJ 3904.7523
    Z_1_7 TU_7 -442.79169
    Z_1_7 TL_7 -280.8
    Z_1_7 ONE_7 1
    Z_1_7 SUL_7 -1090.9747
    Z_1_7 SWR_1_7 -1
    Z_1_7 SWR_1_8 1
    Z_2_7 OBJ 3287.8772
    Z_2_7 TU_7 -639.61589
    Z_2_7 TL_7 -432
    Z_2_7 ONE_7 1
    Z_2_7 SUL_7 -1300.0882
    Z_2_7 SWR_2_7 -1
    Z_2_7 SWR_2_8 1
    MARKER 'MARKER' 'INTEND'
    SW_7 OBJ 5307.0335
    SW_7 SWR_0_7 1
    SW_7 SWR_1_7 1
    SW_7 SWR_2_7 1
    SELL_0_7 OBJ -105.72048
    SELL_0_7 PB_0_7 -1
    PINV_0_7 OBJ 0.5
    PINV_0_7 PB_0_7 -1
    PINV_0_7 PB_0_8 1
    SELL_1_7 OBJ -99.054447
    SELL_1_7 PB_1_7 -1
    PINV_1_7 OBJ 0.5
    PINV_1_7 PB_1_7 -1
    PINV_1_7 PB_1_8 1
    SELL_2_7 OBJ -99.626048
    SELL_2_7 PB_2_7 -1
    PINV_2_7 OBJ 0.5
    PINV_2_7 PB_2_7 -1
    PINV_2_7 PB_2_8 1
    MARKER 'MARKER' 'INTORG'
    NC_0_8 OBJ 22976.114
    NC_0_8 CB_0_8 300
    MARKER 'MARKER' 'INTEND'
    INV_0_8 OBJ 0.3
    INV_0_8 CB_0_8 -1
    INV_0_8 CB_0_9 1
    X_0_0_8 CB_0_8 -1
    X_0_0_8 PB_0_8 1
    X_0_0_8 Q_0_0_8 -0.412571
    X_0_0_8 Q_0_1_8 -0.318349
    X_0_0_8 TU_8 1
    X_0_0_8 TL_8 1
    X_0_0_8 SUL_8 0.2
    X_0_1_8 CB_0_8 -1
    X_0_1_8 PB_1_8 1
    X_0_1_8 Q_1_0_8 -0.505112
    X_0_1_8 Q_1_1_8 -0.749342
    X_0_1_8 TU_8 1
    X_0_1_8 TL_8 1
    X_0_1_8 SUL_8 0.2
    X_0_2_8 CB_0_8 -1
    X_0_2_8 PB_2_8 1
    X_0_2_8 Q_2_0_8 -0.58724
    X_0_2_8 Q_2_1_8 -0.340922
    X_0_2_8 TU_8 1
    X_0_2_8 TL_8 1
    X_0_2_8 SUL_8 0.2
    MARKER 'MARKER' 'INTORG'
    NC_1_8 OBJ 20019.016
    NC_1_8 CB_1_8 300
    MARKER 'MARKER' 'INTEND'
    INV_1_8 OBJ 0.3
    INV_1_8 CB_1_8 -1
    INV_1_8 CB_1_9 1
    X_1_0_8 CB_1_8 -1
    X_1_0_8 PB_0_8 1
    X_1_0_8 Q_0_0_8 0.104397
    X_1_0_8 Q_0_1_8 0.104263
    X_1_0_8 TU_8 1
    X_1_0_8 TL_8 1
    X_1_0_8 SUL_8 1.6721078
    X_1_1_8 CB_1_8 -1
    X_1_1_8 PB_1_8 1
    X_1_1_8 Q_1_0_8 0.011856
    X_1_1_8 Q_1_1_8 -0.32673
    X_1_1_8 TU_8 1
    X_1_1_8 TL_8 1
    X_1_1_8 SUL_8 1.6721078
    X_1_2_8 CB_1_8 -1
    X_1_2_8 PB_2_8 1
    X_1_2_8 Q_2_0_8 -0.070272
    X_1_2_8 Q_2_1_8 0.08169
    X_1_2_8 TU_8 1
    X_1_2_8 TL_8 1
    X_1_2_8 SUL_8 1.6721078
    MARKER 'MARKER' 'INTORG'
    NC_2_8 OBJ 19175.078
    NC_2_8 CB_2_8 300
    MARKER 'MARKER' 'INTEND'
    INV_2_8 OBJ 0.3
    INV_2_8 CB_2_8 -1
    INV_2_8 CB_2_9 1
    X_2_0_8 CB_2_8 -1
    X_2_0_8 PB_0_8 1
    X_2_0_8 Q_0_0_8 -0.157743
    X_2_0_8 Q_0_1_8 -0.284221
    X_2_0_8 TU_8 1
    X_2_0_8 TL_8 1
    X_2_0_8 SUL_8 1.769429
    X_2_1_8 CB_2_8 -1
    X_2_1_8 PB_1_8 1
    X_2_1_8 Q_1_0_8 -0.250283
    X_2_1_8 Q_1_1_8 -0.715214
    X_2_1_8 TU_8 1
    X_2_1_8 TL_8 1
    X_2_1_8 SUL_8 1.769429
    X_2_2_8 CB_2_8 -1
    X_2_2_8 PB_2_8 1
    X_2_2_8 Q_2_0_8 -0.332411
    X_2_2_8 Q_2_1_8 -0.306794
    X_2_2_8 TU_8 1
    X_2_2_8 TL_8 1
    X_2_2_8 SUL_8 1.769429
    MARKER 'MARKER' 'INTORG'
    NC_3_8 OBJ 31962.521
    NC_3_8 CB_3_8 500
    MARKER 'MARKER' 'INTEND'
    INV_3_8 OBJ 0.3
    INV_3_8 CB_3_8 -1
    INV_3_8 CB_3_9 1
    X_3_0_8 CB_3_8 -1
    X_3_0_8 PB_0_8 1
    X_3_0_8 Q_0_0_8 -0.386499
    X_3_0_8 Q_0_1_8 0.1233
    X_3_0_8 TU_8 1
    X_3_0_8 TL_8 1
    X_3_0_8 SUL_8 0.86114554
    X_3_1_8 CB_3_8 -1
    X_3_1_8 PB_1_8 1
    X_3_1_8 Q_1_0_8 -0.479039
    X_3_1_8 Q_1_1_8 -0.307693
    X_3_1_8 TU_8 1
    X_3_1_8 TL_8 1
    X_3_1_8 SUL_8 0.86114554
    X_3_2_8 CB_3_8 -1
    X_3_2_8 PB_2_8 1
    X_3_2_8 Q_2_0_8 -0.561167
    X_3_2_8 Q_2_1_8 0.100727
    X_3_2_8 TU_8 1
    X_3_2_8 TL_8 1
    X_3_2_8 SUL_8 0.86114554
    MARKER 'MARKER' 'INTORG'
    NC_4_8 OBJ 28420.636
    NC_4_8 CB_4_8 400
    MARKER 'MARKER' 'INTEND'
    INV_4_8 OBJ 0.3
    INV_4_8 CB_4_8 -1
    INV_4_8 CB_4_9 1
    X_4_0_8 CB_4_8 -1
    X_4_0_8 PB_0_8 1
    X_4_0_8 Q_0_0_8 -0.11003
    X_4_0_8 Q_0_1_8 0.042665
    X_4_0_8 TU_8 1
    X_4_0_8 TL_8 1
    X_4_0_8 SUL_8 0.26680262
    X_4_1_8 CB_4_8 -1
    X_4_1_8 PB_1_8 1
    X_4_1_8 Q_1_0_8 -0.20257
    X_4_1_8 Q_1_1_8 -0.388328
    X_4_1_8 TU_8 1
    X_4_1_8 TL_8 1
    X_4_1_8 SUL_8 0.26680262
    X_4_2_8 CB_4_8 -1
    X_4_2_8 PB_2_8 1
    X_4_2_8 Q_2_0_8 -0.284698
    X_4_2_8 Q_2_1_8 0.020092
    X_4_2_8 TU_8 1
    X_4_2_8 TL_8 1
    X_4_2_8 SUL_8 0.26680262
    MARKER 'MARKER' 'INTORG'
    Z_0_8 OBJ 3474.3691
    Z_0_8 TU_8 -240.18727
    Z_0_8 TL_8 -129.6
    Z_0_8 ONE_8 1
    Z_0_8 SUL_8 -492.25958
    Z_0_8 SWR_0_8 -1
    Z_0_8 SWR_0_9 1
    Z_1_8 OBJ 3904.7523
    Z_1_8 TU_8 -442.79169
    Z_1_8 TL_8 -280.8
    Z_1_8 ONE_8 1
    Z_1_8 SUL_8 -1090.9747
    Z_1_8 SWR_1_8 -1
    Z_1_8 SWR_1_9 1
    Z_2_8 OBJ 3287.8772
    Z_2_8 TU_8 -639.61589
    Z_2_8 TL_8 -432
    Z_2_8 ONE_8 1
    Z_2_8 SUL_8 -1300.0882
    Z_2_8 SWR_2_8 -1
    Z_2_8 SWR_2_9 1
    MARKER 'MARKER' 'INTEND'
    SW_8 OBJ 5307.0335
    SW_8 SWR_0_8 1
    SW_8 SWR_1_8 1
    SW_8 SWR_2_8 1
    SELL_0_8 OBJ -101.1529
    SELL_0_8 PB_0_8 -1
    PINV_0_8 OBJ 0.5
    PINV_0_8 PB_0_8 -1
    PINV_0_8 PB_0_9 1
    SELL_1_8 OBJ -99.188538
    SELL_1_8 PB_1_8 -1
    PINV_1_8 OBJ 0.5
    PINV_1_8 PB_1_8 -1
    PINV_1_8 PB_1_9 1
    SELL_2_8 OBJ -96.006781
    SELL_2_8 PB_2_8 -1
    PINV_2_8 OBJ 0.5
    PINV_2_8 PB_2_8 -1
    PINV_2_8 PB_2_9 1
    MARKER 'MARKER' 'INTORG'
    NC_0_9 OBJ 22317.509
    NC_0_9 CB_0_9 300
    MARKER 'MARKER' 'INTEND'
    INV_0_9 OBJ 0.3
    INV_0_9 CB_0_9 -1
    INV_0_9 CB_0_10 1
    X_0_0_9 CB_0_9 -1
    X_0_0_9 PB_0_9 1
    X_0_0_9 Q_0_0_9 -0.412571
    X_0_0_9 Q_0_1_9 -0.318349
    X_0_0_9 TU_9 1
    X_0_0_9 TL_9 1
    X_0_0_9 SUL_9 0.2
    X_0_1_9 CB_0_9 -1
    X_0_1_9 PB_1_9 1
    X_0_1_9 Q_1_0_9 -0.505112
    X_0_1_9 Q_1_1_9 -0.749342
    X_0_1_9 TU_9 1
    X_0_1_9 TL_9 1
    X_0_1_9 SUL_9 0.2
    X_0_2_9 CB_0_9 -1
    X_0_2_9 PB_2_9 1
    X_0_2_9 Q_2_0_9 -0.58724
    X_0_2_9 Q_2_1_9 -0.340922
    X_0_2_9 TU_9 1
    X_0_2_9 TL_9 1
    X_0_2_9 SUL_9 0.2
    MARKER 'MARKER' 'INTORG'
    NC_1_9 OBJ 19932.56
    NC_1_9 CB_1_9 300
    MARKER 'MARKER' 'INTEND'
    INV_1_9 OBJ 0.3
    INV_1_9 CB_1_9 -1
    INV_1_9 CB_1_10 1
    X_1_0_9 CB_1_9 -1
    X_1_0_9 PB_0_9 1
    X_1_0_9 Q_0_0_9 0.104397
    X_1_0_9 Q_0_1_9 0.104263
    X_1_0_9 TU_9 1
    X_1_0_9 TL_9 1
    X_1_0_9 SUL_9 1.6721078
    X_1_1_9 CB_1_9 -1
    X_1_1_9 PB_1_9 1
    X_1_1_9 Q_1_0_9 0.011856
    X_1_1_9 Q_1_1_9 -0.32673
    X_1_1_9 TU_9 1
    X_1_1_9 TL_9 1
    X_1_1_9 SUL_9 1.6721078
    X_1_2_9 CB_1_9 -1
    X_1_2_9 PB_2_9 1
    X_1_2_9 Q_2_0_9 -0.070272
    X_1_2_9 Q_2_1_9 0.08169
    X_1_2_9 TU_9 1
    X_1_2_9 TL_9 1
    X_1_2_9 SUL_9 1.6721078
    MARKER 'MARKER' 'INTORG'
    NC_2_9 OBJ 18695.457
    NC_2_9 CB_2_9 300
    MARKER 'MARKER' 'INTEND'
    INV_2_9 OBJ 0.3
    INV_2_9 CB_2_9 -1
    INV_2_9 CB_2_10 1
    X_2_0_9 CB_2_9 -1
    X_2_0_9 PB_0_9 1
    X_2_0_9 Q_0_0_9 -0.157743
    X_2_0_9 Q_0_1_9 -0.284221
    X_2_0_9 TU_9 1
    X_2_0_9 TL_9 1
    X_2_0_9 SUL_9 1.769429
    X_2_1_9 CB_2_9 -1
    X_2_1_9 PB_1_9 1
    X_2_1_9 Q_1_0_9 -0.250283
    X_2_1_9 Q_1_1_9 -0.715214
    X_2_1_9 TU_9 1
    X_2_1_9 TL_9 1
    X_2_1_9 SUL_9 1.769429
    X_2_2_9 CB_2_9 -1
    X_2_2_9 PB_2_9 1
    X_2_2_9 Q_2_0_9 -0.332411
    X_2_2_9 Q_2_1_9 -0.306794
    X_2_2_9 TU_9 1
    X_2_2_9 TL_9 1
    X_2_2_9 SUL_9 1.769429
    MARKER 'MARKER' 'INTORG'
    NC_3_9 OBJ 32687.315
    NC_3_9 CB_3_9 500
    MARKER 'MARKER' 'INTEND'
    INV_3_9 OBJ 0.3
    INV_3_9 CB_3_9 -1
    INV_3_9 CB_3_10 1
    X_3_0_9 CB_3_9 -1
    X_3_0_9 PB_0_9 1
    X_3_0_9 Q_0_0_9 -0.386499
    X_3_0_9 Q_0_1_9 0.1233
    X_3_0_9 TU_9 1
    X_3_0_9 TL_9 1
    X_3_0_9 SUL_9 0.86114554
    X_3_1_9 CB_3_9 -1
    X_3_1_9 PB_1_9 1
    X_3_1_9 Q_1_0_9 -0.479039
    X_3_1_9 Q_1_1_9 -0.307693
    X_3_1_9 TU_9 1
    X_3_1_9 TL_9 1
    X_3_1_9 SUL_9 0.86114554
    X_3_2_9 CB_3_9 -1
    X_3_2_9 PB_2_9 1
    X_3_2_9 Q_2_0_9 -0.561167
    X_3_2_9 Q_2_1_9 0.100727
    X_3_2_9 TU_9 1
    X_3_2_9 TL_9 1
    X_3_2_9 SUL_9 0.86114554
    MARKER 'MARKER' 'INTORG'
    NC_4_9 OBJ 29299.257
    NC_4_9 CB_4_9 400
    MARKER 'MARKER' 'INTEND'
    INV_4_9 OBJ 0.3
    INV_4_9 CB_4_9 -1
    INV_4_9 CB_4_10 1
    X_4_0_9 CB_4_9 -1
    X_4_0_9 PB_0_9 1
    X_4_0_9 Q_0_0_9 -0.11003
    X_4_0_9 Q_0_1_9 0.042665
    X_4_0_9 TU_9 1
    X_4_0_9 TL_9 1
    X_4_0_9 SUL_9 0.26680262
    X_4_1_9 CB_4_9 -1
    X_4_1_9 PB_1_9 1
    X_4_1_9 Q_1_0_9 -0.20257
    X_4_1_9 Q_1_1_9 -0.388328
    X_4_1_9 TU_9 1
    X_4_1_9 TL_9 1
    X_4_1_9 SUL_9 0.26680262
    X_4_2_9 CB_4_9 -1
    X_4_2_9 PB_2_9 1
    X_4_2_9 Q_2_0_9 -0.284698
    X_4_2_9 Q_2_1_9 0.020092
    X_4_2_9 TU_9 1
    X_4_2_9 TL_9 1
    X_4_2_9 SUL_9 0.26680262
    MARKER 'MARKER' 'INTORG'
    Z_0_9 OBJ 3474.3691
    Z_0_9 TU_9 -240.18727
    Z_0_9 TL_9 -129.6
    Z_0_9 ONE_9 1
    Z_0_9 SUL_9 -492.25958
    Z_0_9 SWR_0_9 -1
    Z_0_9 SWR_0_10 1
    Z_1_9 OBJ 3904.7523
    Z_1_9 TU_9 -442.79169
    Z_1_9 TL_9 -280.8
    Z_1_9 ONE_9 1
    Z_1_9 SUL_9 -1090.9747
    Z_1_9 SWR_1_9 -1
    Z_1_9 SWR_1_10 1
    Z_2_9 OBJ 3287.8772
    Z_2_9 TU_9 -639.61589
    Z_2_9 TL_9 -432
    Z_2_9 ONE_9 1
    Z_2_9 SUL_9 -1300.0882
    Z_2_9 SWR_2_9 -1
    Z_2_9 SWR_2_10 1
    MARKER 'MARKER' 'INTEND'
    SW_9 OBJ 5307.0335
    SW_9 SWR_0_9 1
    SW_9 SWR_1_9 1
    SW_9 SWR_2_9 1
    SELL_0_9 OBJ -111.53057
    SELL_0_9 PB_0_9 -1
    PINV_0_9 OBJ 0.5
    PINV_0_9 PB_0_9 -1
    PINV_0_9 PB_0_10 1
    SELL_1_9 OBJ -102.31761
    SELL_1_9 PB_1_9 -1
    PINV_1_9 OBJ 0.5
    PINV_1_9 PB_1_9 -1
    PINV_1_9 PB_1_10 1
    SELL_2_9 OBJ -101.62286
    SELL_2_9 PB_2_9 -1
    PINV_2_9 OBJ 0.5
    PINV_2_9 PB_2_9 -1
    PINV_2_9 PB_2_10 1
    MARKER 'MARKER' 'INTORG'
    NC_0_10 OBJ 23179.786
    NC_0_10 CB_0_10 300
    MARKER 'MARKER' 'INTEND'
    INV_0_10 OBJ 0.3
    INV_0_10 CB_0_10 -1
    INV_0_10 CB_0_11 1
    X_0_0_10 CB_0_10 -1
    X_0_0_10 PB_0_10 1
    X_0_0_10 Q_0_0_10 -0.412571
    X_0_0_10 Q_0_1_10 -0.318349
    X_0_0_10 TU_10 1
    X_0_0_10 TL_10 1
    X_0_0_10 SUL_10 0.2
    X_0_1_10 CB_0_10 -1
    X_0_1_10 PB_1_10 1
    X_0_1_10 Q_1_0_10 -0.505112
    X_0_1_10 Q_1_1_10 -0.749342
    X_0_1_10 TU_10 1
    X_0_1_10 TL_10 1
    X_0_1_10 SUL_10 0.2
    X_0_2_10 CB_0_10 -1
    X_0_2_10 PB_2_10 1
    X_0_2_10 Q_2_0_10 -0.58724
    X_0_2_10 Q_2_1_10 -0.340922
    X_0_2_10 TU_10 1
    X_0_2_10 TL_10 1
    X_0_2_10 SUL_10 0.2
    MARKER 'MARKER' 'INTORG'
    NC_1_10 OBJ 21202.306
    NC_1_10 CB_1_10 300
    MARKER 'MARKER' 'INTEND'
    INV_1_10 OBJ 0.3
    INV_1_10 CB_1_10 -1
    INV_1_10 CB_1_11 1
    X_1_0_10 CB_1_10 -1
    X_1_0_10 PB_0_10 1
    X_1_0_10 Q_0_0_10 0.104397
    X_1_0_10 Q_0_1_10 0.104263
    X_1_0_10 TU_10 1
    X_1_0_10 TL_10 1
    X_1_0_10 SUL_10 1.6721078
    X_1_1_10 CB_1_10 -1
    X_1_1_10 PB_1_10 1
    X_1_1_10 Q_1_0_10 0.011856
    X_1_1_10 Q_1_1_10 -0.32673
    X_1_1_10 TU_10 1
    X_1_1_10 TL_10 1
    X_1_1_10 SUL_10 1.6721078
    X_1_2_10 CB_1_10 -1
    X_1_2_10 PB_2_10 1
    X_1_2_10 Q_2_0_10 -0.070272
    X_1_2_10 Q_2_1_10 0.08169
    X_1_2_10 TU_10 1
    X_1_2_10 TL_10 1
    X_1_2_10 SUL_10 1.6721078
    MARKER 'MARKER' 'INTORG'
    NC_2_10 OBJ 18805.403
    NC_2_10 CB_2_10 300
    MARKER 'MARKER' 'INTEND'
    INV_2_10 OBJ 0.3
    INV_2_10 CB_2_10 -1
    INV_2_10 CB_2_11 1
    X_2_0_10 CB_2_10 -1
    X_2_0_10 PB_0_10 1
    X_2_0_10 Q_0_0_10 -0.157743
    X_2_0_10 Q_0_1_10 -0.284221
    X_2_0_10 TU_10 1
    X_2_0_10 TL_10 1
    X_2_0_10 SUL_10 1.769429
    X_2_1_10 CB_2_10 -1
    X_2_1_10 PB_1_10 1
    X_2_1_10 Q_1_0_10 -0.250283
    X_2_1_10 Q_1_1_10 -0.715214
    X_2_1_10 TU_10 1
    X_2_1_10 TL_10 1
    X_2_1_10 SUL_10 1.769429
    X_2_2_10 CB_2_10 -1
    X_2_2_10 PB_2_10 1
    X_2_2_10 Q_2_0_10 -0.332411
    X_2_2_10 Q_2_1_10 -0.306794
    X_2_2_10 TU_10 1
    X_2_2_10 TL_10 1
    X_2_2_10 SUL_10 1.769429
    MARKER 'MARKER' 'INTORG'
    NC_3_10 OBJ 31955.287
    NC_3_10 CB_3_10 500
    MARKER 'MARKER' 'INTEND'
    INV_3_10 OBJ 0.3
    INV_3_10 CB_3_10 -1
    INV_3_10 CB_3_11 1
    X_3_0_10 CB_3_10 -1
    X_3_0_10 PB_0_10 1
    X_3_0_10 Q_0_0_10 -0.386499
    X_3_0_10 Q_0_1_10 0.1233
    X_3_0_10 TU_10 1
    X_3_0_10 TL_10 1
    X_3_0_10 SUL_10 0.86114554
    X_3_1_10 CB_3_10 -1
    X_3_1_10 PB_1_10 1
    X_3_1_10 Q_1_0_10 -0.479039
    X_3_1_10 Q_1_1_10 -0.307693
    X_3_1_10 TU_10 1
    X_3_1_10 TL_10 1
    X_3_1_10 SUL_10 0.86114554
    X_3_2_10 CB_3_10 -1
    X_3_2_10 PB_2_10 1
    X_3_2_10 Q_2_0_10 -0.561167
    X_3_2_10 Q_2_1_10 0.100727
    X_3_2_10 TU_10 1
    X_3_2_10 TL_10 1
    X_3_2_10 SUL_10 0.86114554
    MARKER 'MARKER' 'INTORG'
    NC_4_10 OBJ 27994.44
    NC_4_10 CB_4_10 400
    MARKER 'MARKER' 'INTEND'
    INV_4_10 OBJ 0.3
    INV_4_10 CB_4_10 -1
    INV_4_10 CB_4_11 1
    X_4_0_10 CB_4_10 -1
    X_4_0_10 PB_0_10 1
    X_4_0_10 Q_0_0_10 -0.11003
    X_4_0_10 Q_0_1_10 0.042665
    X_4_0_10 TU_10 1
    X_4_0_10 TL_10 1
    X_4_0_10 SUL_10 0.26680262
    X_4_1_10 CB_4_10 -1
    X_4_1_10 PB_1_10 1
    X_4_1_10 Q_1_0_10 -0.20257
    X_4_1_10 Q_1_1_10 -0.388328
    X_4_1_10 TU_10 1
    X_4_1_10 TL_10 1
    X_4_1_10 SUL_10 0.26680262
    X_4_2_10 CB_4_10 -1
    X_4_2_10 PB_2_10 1
    X_4_2_10 Q_2_0_10 -0.284698
    X_4_2_10 Q_2_1_10 0.020092
    X_4_2_10 TU_10 1
    X_4_2_10 TL_10 1
    X_4_2_10 SUL_10 0.26680262
    MARKER 'MARKER' 'INTORG'
    Z_0_10 OBJ 3474.3691
    Z_0_10 TU_10 -240.18727
    Z_0_10 TL_10 -129.6
    Z_0_10 ONE_10 1
    Z_0_10 SUL_10 -492.25958
    Z_0_10 SWR_0_10 -1
    Z_0_10 SWR_0_11 1
    Z_1_10 OBJ 3904.7523
    Z_1_10 TU_10 -442.79169
    Z_1_10 TL_10 -280.8
    Z_1_10 ONE_10 1
    Z_1_10 SUL_10 -1090.9747
    Z_1_10 SWR_1_10 -1
    Z_1_10 SWR_1_11 1
    Z_2_10 OBJ 3287.8772
    Z_2_10 TU_10 -639.61589
    Z_2_10 TL_10 -432
    Z_2_10 ONE_10 1
    Z_2_10 SUL_10 -1300.0882
    Z_2_10 SWR_2_10 -1
    Z_2_10 SWR_2_11 1
    MARKER 'MARKER' 'INTEND'
    SW_10 OBJ 5307.0335
    SW_10 SWR_0_10 1
    SW_10 SWR_1_10 1
    SW_10 SWR_2_10 1
    SELL_0_10 OBJ -101.01253
    SELL_0_10 PB_0_10 -1
    PINV_0_10 OBJ 0.5
    PINV_0_10 PB_0_10 -1
    PINV_0_10 PB_0_11 1
    SELL_1_10 OBJ -101.94751
    SELL_1_10 PB_1_10 -1
    PINV_1_10 OBJ 0.5
    PINV_1_10 PB_1_10 -1
    PINV_1_10 PB_1_11 1
    SELL_2_10 OBJ -102.95751
    SELL_2_10 PB_2_10 -1
    PINV_2_10 OBJ 0.5
    PINV_2_10 PB_2_10 -1
    PINV_2_10 PB_2_11 1
    MARKER 'MARKER' 'INTORG'
    NC_0_11 OBJ 22465.941
    NC_0_11 CB_0_11 300
    MARKER 'MARKER' 'INTEND'
    INV_0_11 OBJ 0.3
    INV_0_11 CB_0_11 -1
    X_0_0_11 CB_0_11 -1
    X_0_0_11 PB_0_11 1
    X_0_0_11 Q_0_0_11 -0.412571
    X_0_0_11 Q_0_1_11 -0.318349
    X_0_0_11 TU_11 1
    X_0_0_11 TL_11 1
    X_0_0_11 SUL_11 0.2
    X_0_1_11 CB_0_11 -1
    X_0_1_11 PB_1_11 1
    X_0_1_11 Q_1_0_11 -0.505112
    X_0_1_11 Q_1_1_11 -0.749342
    X_0_1_11 TU_11 1
    X_0_1_11 TL_11 1
    X_0_1_11 SUL_11 0.2
    X_0_2_11 CB_0_11 -1
    X_0_2_11 PB_2_11 1
    X_0_2_11 Q_2_0_11 -0.58724
    X_0_2_11 Q_2_1_11 -0.340922
    X_0_2_11 TU_11 1
    X_0_2_11 TL_11 1
    X_0_2_11 SUL_11 0.2
    MARKER 'MARKER' 'INTORG'
    NC_1_11 OBJ 19939.593
    NC_1_11 CB_1_11 300
    MARKER 'MARKER' 'INTEND'
    INV_1_11 OBJ 0.3
    INV_1_11 CB_1_11 -1
    X_1_0_11 CB_1_11 -1
    X_1_0_11 PB_0_11 1
    X_1_0_11 Q_0_0_11 0.104397
    X_1_0_11 Q_0_1_11 0.104263
    X_1_0_11 TU_11 1
    X_1_0_11 TL_11 1
    X_1_0_11 SUL_11 1.6721078
    X_1_1_11 CB_1_11 -1
    X_1_1_11 PB_1_11 1
    X_1_1_11 Q_1_0_11 0.011856
    X_1_1_11 Q_1_1_11 -0.32673
    X_1_1_11 TU_11 1
    X_1_1_11 TL_11 1
    X_1_1_11 SUL_11 1.6721078
    X_1_2_11 CB_1_11 -1
    X_1_2_11 PB_2_11 1
    X_1_2_11 Q_2_0_11 -0.070272
    X_1_2_11 Q_2_1_11 0.08169
    X_1_2_11 TU_11 1
    X_1_2_11 TL_11 1
    X_1_2_11 SUL_11 1.6721078
    MARKER 'MARKER' 'INTORG'
    NC_2_11 OBJ 18025.764
    NC_2_11 CB_2_11 300
    MARKER 'MARKER' 'INTEND'
    INV_2_11 OBJ 0.3
    INV_2_11 CB_2_11 -1
    X_2_0_11 CB_2_11 -1
    X_2_0_11 PB_0_11 1
    X_2_0_11 Q_0_0_11 -0.157743
    X_2_0_11 Q_0_1_11 -0.284221
    X_2_0_11 TU_11 1
    X_2_0_11 TL_11 1
    X_2_0_11 SUL_11 1.769429
    X_2_1_11 CB_2_11 -1
    X_2_1_11 PB_1_11 1
    X_2_1_11 Q_1_0_11 -0.250283
    X_2_1_11 Q_1_1_11 -0.715214
    X_2_1_11 TU_11 1
    X_2_1_11 TL_11 1
    X_2_1_11 SUL_11 1.769429
    X_2_2_11 CB_2_11 -1
    X_2_2_11 PB_2_11 1
    X_2_2_11 Q_2_0_11 -0.332411
    X_2_2_11 Q_2_1_11 -0.306794
    X_2_2_11 TU_11 1
    X_2_2_11 TL_11 1
    X_2_2_11 SUL_11 1.769429
    MARKER 'MARKER' 'INTORG'
    NC_3_11 OBJ 31882.32
    NC_3_11 CB_3_11 500
    MARKER 'MARKER' 'INTEND'
    INV_3_11 OBJ 0.3
    INV_3_11 CB_3_11 -1
    X_3_0_11 CB_3_11 -1
    X_3_0_11 PB_0_11 1
    X_3_0_11 Q_0_0_11 -0.386499
    X_3_0_11 Q_0_1_11 0.1233
    X_3_0_11 TU_11 1
    X_3_0_11 TL_11 1
    X_3_0_11 SUL_11 0.86114554
    X_3_1_11 CB_3_11 -1
    X_3_1_11 PB_1_11 1
    X_3_1_11 Q_1_0_11 -0.479039
    X_3_1_11 Q_1_1_11 -0.307693
    X_3_1_11 TU_11 1
    X_3_1_11 TL_11 1
    X_3_1_11 SUL_11 0.86114554
    X_3_2_11 CB_3_11 -1
    X_3_2_11 PB_2_11 1
    X_3_2_11 Q_2_0_11 -0.561167
    X_3_2_11 Q_2_1_11 0.100727
    X_3_2_11 TU_11 1
    X_3_2_11 TL_11 1
    X_3_2_11 SUL_11 0.86114554
    MARKER 'MARKER' 'INTORG'
    NC_4_11 OBJ 27515.623
    NC_4_11 CB_4_11 400
    MARKER 'MARKER' 'INTEND'
    INV_4_11 OBJ 0.3
    INV_4_11 CB_4_11 -1
    X_4_0_11 CB_4_11 -1
    X_4_0_11 PB_0_11 1
    X_4_0_11 Q_0_0_11 -0.11003
    X_4_0_11 Q_0_1_11 0.042665
    X_4_0_11 TU_11 1
    X_4_0_11 TL_11 1
    X_4_0_11 SUL_11 0.26680262
    X_4_1_11 CB_4_11 -1
    X_4_1_11 PB_1_11 1
    X_4_1_11 Q_1_0_11 -0.20257
    X_4_1_11 Q_1_1_11 -0.388328
    X_4_1_11 TU_11 1
    X_4_1_11 TL_11 1
    X_4_1_11 SUL_11 0.26680262
    X_4_2_11 CB_4_11 -1
    X_4_2_11 PB_2_11 1
    X_4_2_11 Q_2_0_11 -0.284698
    X_4_2_11 Q_2_1_11 0.020092
    X_4_2_11 TU_11 1
    X_4_2_11 TL_11 1
    X_4_2_11 SUL_11 0.26680262
    MARKER 'MARKER' 'INTORG'
    Z_0_11 OBJ 3474.3691
    Z_0_11 TU_11 -240.18727
    Z_0_11 TL_11 -129.6
    Z_0_11 ONE_11 1
    Z_0_11 SUL_11 -492.25958
    Z_0_11 SWR_0_11 -1
    Z_1_11 OBJ 3904.7523
    Z_1_11 TU_11 -442.79169
    Z_1_11 TL_11 -280.8
    Z_1_11 ONE_11 1
    Z_1_11 SUL_11 -1090.9747
    Z_1_11 SWR_1_11 -1
    Z_2_11 OBJ 3287.8772
    Z_2_11 TU_11 -639.61589
    Z_2_11 TL_11 -432
    Z_2_11 ONE_11 1
    Z_2_11 SUL_11 -1300.0882
    Z_2_11 SWR_2_11 -1
    MARKER 'MARKER' 'INTEND'
    SW_11 OBJ 5307.0335
    SW_11 SWR_0_11 1
    SW_11 SWR_1_11 1
    SW_11 SWR_2_11 1
    SELL_0_11 OBJ -105.8967
    SELL_0_11 PB_0_11 -1
    PINV_0_11 OBJ 0.5
    PINV_0_11 PB_0_11 -1
    SELL_1_11 OBJ -104.3451
    SELL_1_11 PB_1_11 -1
    PINV_1_11 OBJ 0.5
    PINV_1_11 PB_1_11 -1
    SELL_2_11 OBJ -104.79831
    SELL_2_11 PB_2_11 -1
    PINV_2_11 OBJ 0.5
    PINV_2_11 PB_2_11 -1
RHS
    RHS CB_0_0 -198.88339
    RHS CB_1_0 -183.75522
    RHS CB_2_0 -346.81203
    RHS CB_3_0 -313.02566
    RHS CB_4_0 -415.76224
    RHS ONE_0 1
    RHS ONE_1 1
    RHS ONE_2 1
    RHS ONE_3 1
    RHS ONE_4 1
    RHS ONE_5 1
    RHS ONE_6 1
    RHS ONE_7 1
    RHS ONE_8 1
    RHS ONE_9 1
    RHS ONE_10 1
    RHS ONE_11 1
BOUNDS
 UP BND NC_0_0 2
 UP BND INV_0_0 750
 UP BND NC_1_0 2
 UP BND INV_1_0 750
 UP BND NC_2_0 2
 UP BND INV_2_0 750
 UP BND NC_3_0 2
 UP BND INV_3_0 1250
 UP BND NC_4_0 2
 UP BND INV_4_0 1000
 UP BND Z_0_0 1
 UP BND Z_1_0 1
 UP BND Z_2_0 1
 UP BND SELL_0_0 164.19569
 UP BND PINV_0_0 432
 UP BND SELL_1_0 117.35372
 UP BND PINV_1_0 432
 UP BND SELL_2_0 99.864062
 UP BND PINV_2_0 432
 UP BND NC_0_1 2
 UP BND INV_0_1 750
 UP BND NC_1_1 2
 UP BND INV_1_1 750
 UP BND NC_2_1 2
 UP BND INV_2_1 750
 UP BND NC_3_1 2
 UP BND INV_3_1 1250
 UP BND NC_4_1 2
 UP BND INV_4_1 1000
 UP BND Z_0_1 1
 UP BND Z_1_1 1
 UP BND Z_2_1 1
 UP BND SW_1 1
 UP BND SELL_0_1 168.19506
 UP BND PINV_0_1 432
 UP BND SELL_1_1 119.25887
 UP BND PINV_1_1 432
 UP BND SELL_2_1 135.15276
 UP BND PINV_2_1 432
 UP BND NC_0_2 2
 UP BND INV_0_2 750
 UP BND NC_1_2 2
 UP BND INV_1_2 750
 UP BND NC_2_2 2
 UP BND INV_2_2 750
 UP BND NC_3_2 2
 UP BND INV_3_2 1250
 UP BND NC_4_2 2
 UP BND INV_4_2 1000
 UP BND Z_0_2 1
 UP BND Z_1_2 1
 UP BND Z_2_2 1
 UP BND SW_2 1
 UP BND SELL_0_2 72.94054
 UP BND PINV_0_2 432
 UP BND SELL_1_2 143.20252
 UP BND PINV_1_2 432
 UP BND SELL_2_2 85.471495
 UP BND PINV_2_2 432
 UP BND NC_0_3 2
 UP BND INV_0_3 750
 UP BND NC_1_3 2
 UP BND INV_1_3 750
 UP BND NC_2_3 2
 UP BND INV_2_3 750
 UP BND NC_3_3 2
 UP BND INV_3_3 1250
 UP BND NC_4_3 2
 UP BND INV_4_3 1000
 UP BND Z_0_3 1
 UP BND Z_1_3 1
 UP BND Z_2_3 1
 UP BND SW_3 1
 UP BND SELL_0_3 76.276726
 UP BND PINV_0_3 432
 UP BND SELL_1_3 157.02584
 UP BND PINV_1_3 432
 UP BND SELL_2_3 87.531725
 UP BND PINV_2_3 432
 UP BND NC_0_4 2
 UP BND INV_0_4 750
 UP BND NC_1_4 2
 UP BND INV_1_4 750
 UP BND NC_2_4 2
 UP BND INV_2_4 750
 UP BND NC_3_4 2
 UP BND INV_3_4 1250
 UP BND NC_4_4 2
 UP BND INV_4_4 1000
 UP BND Z_0_4 1
 UP BND Z_1_4 1
 UP BND Z_2_4 1
 UP BND SW_4 1
 UP BND SELL_0_4 137.45867
 UP BND PINV_0_4 432
 UP BND SELL_1_4 167.89271
 UP BND PINV_1_4 432
 UP BND SELL_2_4 143.57774
 UP BND PINV_2_4 432
 UP BND NC_0_5 2
 UP BND INV_0_5 750
 UP BND NC_1_5 2
 UP BND INV_1_5 750
 UP BND NC_2_5 2
 UP BND INV_2_5 750
 UP BND NC_3_5 2
 UP BND INV_3_5 1250
 UP BND NC_4_5 2
 UP BND INV_4_5 1000
 UP BND Z_0_5 1
 UP BND Z_1_5 1
 UP BND Z_2_5 1
 UP BND SW_5 1
 UP BND SELL_0_5 106.44112
 UP BND PINV_0_5 432
 UP BND SELL_1_5 171.72017
 UP BND PINV_1_5 432
 UP BND SELL_2_5 68.717051
 UP BND PINV_2_5 432
 UP BND NC_0_6 2
 UP BND INV_0_6 750
 UP BND NC_1_6 2
 UP BND INV_1_6 750
 UP BND NC_2_6 2
 UP BND INV_2_6 750
 UP BND NC_3_6 2
 UP BND INV_3_6 1250
 UP BND NC_4_6 2
 UP BND INV_4_6 1000
 UP BND Z_0_6 1
 UP BND Z_1_6 1
 UP BND Z_2_6 1
 UP BND SW_6 1
 UP BND SELL_0_6 113.25455
 UP BND PINV_0_6 432
 UP BND SELL_1_6 144.71424
 UP BND PINV_1_6 432
 UP BND SELL_2_6 146.41151
 UP BND PINV_2_6 432
 UP BND NC_0_7 2
 UP BND INV_0_7 750
 UP BND NC_1_7 2
 UP BND INV_1_7 750
 UP BND NC_2_7 2
 UP BND INV_2_7 750
 UP BND NC_3_7 2
 UP BND INV_3_7 1250
 UP BND NC_4_7 2
 UP BND INV_4_7 1000
 UP BND Z_0_7 1
 UP BND Z_1_7 1
 UP BND Z_2_7 1
 UP BND SW_7 1
 UP BND SELL_0_7 75.821303
 UP BND PINV_0_7 432
 UP BND SELL_1_7 159.27441
 UP BND PINV_1_7 432
 UP BND SELL_2_7 127.97522
 UP BND PINV_2_7 432
 UP BND NC_0_8 2
 UP BND INV_0_8 750
 UP BND NC_1_8 2
 UP BND INV_1_8 750
 UP BND NC_2_8 2
 UP BND INV_2_8 750
 UP BND NC_3_8 2
 UP BND INV_3_8 1250
 UP BND NC_4_8 2
 UP BND INV_4_8 1000
 UP BND Z_0_8 1
 UP BND Z_1_8 1
 UP BND Z_2_8 1
 UP BND SW_8 1
 UP BND SELL_0_8 110.1336
 UP BND PINV_0_8 432
 UP BND SELL_1_8 125.05861
 UP BND PINV_1_8 432
 UP BND SELL_2_8 70.932348
 UP BND PINV_2_8 432
 UP BND NC_0_9 2
 UP BND INV_0_9 750
 UP BND NC_1_9 2
 UP BND INV_1_9 750
 UP BND NC_2_9 2
 UP BND INV_2_9 750
 UP BND NC_3_9 2
 UP BND INV_3_9 1250
 UP BND NC_4_9 2
 UP BND INV_4_9 1000
 UP BND Z_0_9 1
 UP BND Z_1_9 1
 UP BND Z_2_9 1
 UP BND SW_9 1
 UP BND SELL_0_9 165.68607
 UP BND PINV_0_9 432
 UP BND SELL_1_9 89.907175
 UP BND PINV_1_9 432
 UP BND SELL_2_9 91.884322
 UP BND PINV_2_9 432
 UP BND NC_0_10 2
 UP BND INV_0_10 750
 UP BND NC_1_10 2
 UP BND INV_1_10 750
 UP BND NC_2_10 2
 UP BND INV_2_10 750
 UP BND NC_3_10 2
 UP BND INV_3_10 1250
 UP BND NC_4_10 2
 UP BND INV_4_10 1000
 UP BND Z_0_10 1
 UP BND Z_1_10 1
 UP BND Z_2_10 1
 UP BND SW_10 1
 UP BND SELL_0_10 121.62851
 UP BND PINV_0_10 432
 UP BND SELL_1_10 68.633936
 UP BND PINV_1_10 432
 UP BND SELL_2_10 76.806896
 UP BND PINV_2_10 432
 UP BND NC_0_11 2
 UP BND INV_0_11 750
 UP BND NC_1_11 2
 UP BND INV_1_11 750
 UP BND NC_2_11 2
 UP BND INV_2_11 750
 UP BND NC_3_11 2
 UP BND INV_3_11 1250
 UP BND NC_4_11 2
 UP BND INV_4_11 1000
 UP BND Z_0_11 1
 UP BND Z_1_11 1
 UP BND Z_2_11 1
 UP BND SW_11 1
 UP BND SELL_0_11 121.03953
 UP BND PINV_0_11 432
 UP BND SELL_1_11 98.250416
 UP BND PINV_1_11 432
 UP BND SELL_2_11 87.744572
 UP BND PINV_2_11 432
ENDATA
