NAME UC_G12_T24_S2
ROWS
 N OBJ
 E DEM_0
 G RES_0
 L PMAX_0_0
 G PMIN_0_0
 E SU_0_0
 L MUT_0_0
 L MDT_0_0
 L PMAX_1_0
 G PMIN_1_0
 E SU_1_0
 L MUT_1_0
 L MDT_1_0
 L PMAX_2_0
 G PMIN_2_0
 E SU_2_0
 L MUT_2_0
 L MDT_2_0
 L PMAX_3_0
 G PMIN_3_0
 E SU_3_0
 L MUT_3_0
 L MDT_3_0
 L PMAX_4_0
 G PMIN_4_0
 E SU_4_0
 L MUT_4_0
 L MDT_4_0
 L PMAX_5_0
 G PMIN_5_0
 E SU_5_0
 L MUT_5_0
 L MDT_5_0
 L PMAX_6_0
 G PMIN_6_0
 E SU_6_0
 L MUT_6_0
 L MDT_6_0
 L PMAX_7_0
 G PMIN_7_0
 E SU_7_0
 L MUT_7_0
 L MDT_7_0
 L PMAX_8_0
 G PMIN_8_0
 E SU_8_0
 L MUT_8_0
 L MDT_8_0
 L PMAX_9_0
 G PMIN_9_0
 E SU_9_0
 L MUT_9_0
 L MDT_9_0
 L PMAX_10_0
 G PMIN_10_0
 E SU_10_0
 L MUT_10_0
 L MDT_10_0
 L PMAX_11_0
 G PMIN_11_0
 E SU_11_0
 L MUT_11_0
 L MDT_11_0
 E DEM_1
 G RES_1
 L PMAX_0_1
 G PMIN_0_1
 E SU_0_1
 L RU_0_1
 L RD_0_1
 L MUT_0_1
 L MDT_0_1
 L PMAX_1_1
 G PMIN_1_1
 E SU_1_1
 L RU_1_1
 L RD_1_1
 L MUT_1_1
 L MDT_1_1
 L PMAX_2_1
 G PMIN_2_1
 E SU_2_1
 L RU_2_1
 L RD_2_1
 L MUT_2_1
 L MDT_2_1
 L PMAX_3_1
 G PMIN_3_1
 E SU_3_1
 L RU_3_1
 L RD_3_1
 L MUT_3_1
 L MDT_3_1
 L PMAX_4_1
 G PMIN_4_1
 E SU_4_1
 L RU_4_1
 L RD_4_1
 L MUT_4_1
 L MDT_4_1
 L PMAX_5_1
 G PMIN_5_1
 E SU_5_1
 L RU_5_1
 L RD_5_1
 L MUT_5_1
 L MDT_5_1
 L PMAX_6_1
 G PMIN_6_1
 E SU_6_1
 L RU_6_1
 L RD_6_1
 L MUT_6_1
 L MDT_6_1
 L PMAX_7_1
 G PMIN_7_1
 E SU_7_1
 L RU_7_1
 L RD_7_1
 L MUT_7_1
 L MDT_7_1
 L PMAX_8_1
 G PMIN_8_1
 E SU_8_1
 L RU_8_1
 L RD_8_1
 L MUT_8_1
 L MDT_8_1
 L PMAX_9_1
 G PMIN_9_1
 E SU_9_1
 L RU_9_1
 L RD_9_1
 L MUT_9_1
 L MDT_9_1
 L PMAX_10_1
 G PMIN_10_1
 E SU_10_1
 L RU_10_1
 L RD_10_1
 L MUT_10_1
 L MDT_10_1
 L PMAX_11_1
 G PMIN_11_1
 E SU_11_1
 L RU_11_1
 L RD_11_1
 L MUT_11_1
 L MDT_11_1
 E DEM_2
 G RES_2
 L PMAX_0_2
 G PMIN_0_2
 E SU_0_2
 L RU_0_2
 L RD_0_2
 L MUT_0_2
 L MDT_0_2
 L PMAX_1_2
 G PMIN_1_2
 E SU_1_2
 L RU_1_2
 L RD_1_2
 L MUT_1_2
 L MDT_1_2
 L PMAX_2_2
 G PMIN_2_2
 E SU_2_2
 L RU_2_2
 L RD_2_2
 L MUT_2_2
 L MDT_2_2
 L PMAX_3_2
 G PMIN_3_2
 E SU_3_2
 L RU_3_2
 L RD_3_2
 L MUT_3_2
 L MDT_3_2
 L PMAX_4_2
 G PMIN_4_2
 E SU_4_2
 L RU_4_2
 L RD_4_2
 L MUT_4_2
 L MDT_4_2
 L PMAX_5_2
 G PMIN_5_2
 E SU_5_2
 L RU_5_2
 L RD_5_2
 L MUT_5_2
 L MDT_5_2
 L PMAX_6_2
 G PMIN_6_2
 E SU_6_2
 L RU_6_2
 L RD_6_2
 L MUT_6_2
 L MDT_6_2
 L PMAX_7_2
 G PMIN_7_2
 E SU_7_2
 L RU_7_2
 L RD_7_2
 L MUT_7_2
 L MDT_7_2
 L PMAX_8_2
 G PMIN_8_2
 E SU_8_2
 L RU_8_2
 L RD_8_2
 L MUT_8_2
 L MDT_8_2
 L PMAX_9_2
 G PMIN_9_2
 E SU_9_2
 L RU_9_2
 L RD_9_2
 L MUT_9_2
 L MDT_9_2
 L PMAX_10_2
 G PMIN_10_2
 E SU_10_2
 L RU_10_2
 L RD_10_2
 L MUT_10_2
 L MDT_10_2
 L PMAX_11_2
 G PMIN_11_2
 E SU_11_2
 L RU_11_2
 L RD_11_2
 L MUT_11_2
 L MDT_11_2
 E DEM_3
 G RES_3
 L PMAX_0_3
 G PMIN_0_3
 E SU_0_3
 L RU_0_3
 L RD_0_3
 L MUT_0_3
 L MDT_0_3
 L PMAX_1_3
 G PMIN_1_3
 E SU_1_3
 L RU_1_3
 L RD_1_3
 L MUT_1_3
 L MDT_1_3
 L PMAX_2_3
 G PMIN_2_3
 E SU_2_3
 L RU_2_3
 L RD_2_3
 L MUT_2_3
 L MDT_2_3
 L PMAX_3_3
 G PMIN_3_3
 E SU_3_3
 L RU_3_3
 L RD_3_3
 L MUT_3_3
 L MDT_3_3
 L PMAX_4_3
 G PMIN_4_3
 E SU_4_3
 L RU_4_3
 L RD_4_3
 L MUT_4_3
 L MDT_4_3
 L PMAX_5_3
 G PMIN_5_3
 E SU_5_3
 L RU_5_3
 L RD_5_3
 L MUT_5_3
 L MDT_5_3
 L PMAX_6_3
 G PMIN_6_3
 E SU_6_3
 L RU_6_3
 L RD_6_3
 L MUT_6_3
 L MDT_6_3
 L PMAX_7_3
 G PMIN_7_3
 E SU_7_3
 L RU_7_3
 L RD_7_3
 L MUT_7_3
 L MDT_7_3
 L PMAX_8_3
 G PMIN_8_3
 E SU_8_3
 L RU_8_3
 L RD_8_3
 L MUT_8_3
 L MDT_8_3
 L PMAX_9_3
 G PMIN_9_3
 E SU_9_3
 L RU_9_3
 L RD_9_3
 L MUT_9_3
 L MDT_9_3
 L PMAX_10_3
 G PMIN_10_3
 E SU_10_3
 L RU_10_3
 L RD_10_3
 L MUT_10_3
 L MDT_10_3
 L PMAX_11_3
 G PMIN_11_3
 E SU_11_3
 L RU_11_3
 L RD_11_3
 L MUT_11_3
 L MDT_11_3
 E DEM_4
 G RES_4
 L PMAX_0_4
 G PMIN_0_4
 E SU_0_4
 L RU_0_4
 L RD_0_4
 L MUT_0_4
 L MDT_0_4
 L PMAX_1_4
 G PMIN_1_4
 E SU_1_4
 L RU_1_4
 L RD_1_4
 L MUT_1_4
 L MDT_1_4
 L PMAX_2_4
 G PMIN_2_4
 E SU_2_4
 L RU_2_4
 L RD_2_4
 L MUT_2_4
 L MDT_2_4
 L PMAX_3_4
 G PMIN_3_4
 E SU_3_4
 L RU_3_4
 L RD_3_4
 L MUT_3_4
 L MDT_3_4
 L PMAX_4_4
 G PMIN_4_4
 E SU_4_4
 L RU_4_4
 L RD_4_4
 L MUT_4_4
 L MDT_4_4
 L PMAX_5_4
 G PMIN_5_4
 E SU_5_4
 L RU_5_4
 L RD_5_4
 L MUT_5_4
 L MDT_5_4
 L PMAX_6_4
 G PMIN_6_4
 E SU_6_4
 L RU_6_4
 L RD_6_4
 L MUT_6_4
 L MDT_6_4
 L PMAX_7_4
 G PMIN_7_4
 E SU_7_4
 L RU_7_4
 L RD_7_4
 L MUT_7_4
 L MDT_7_4
 L PMAX_8_4
 G PMIN_8_4
 E SU_8_4
 L RU_8_4
 L RD_8_4
 L MUT_8_4
 L MDT_8_4
 L PMAX_9_4
 G PMIN_9_4
 E SU_9_4
 L RU_9_4
 L RD_9_4
 L MUT_9_4
 L MDT_9_4
 L PMAX_10_4
 G PMIN_10_4
 E SU_10_4
 L RU_10_4
 L RD_10_4
 L MUT_10_4
 L MDT_10_4
 L PMAX_11_4
 G PMIN_11_4
 E SU_11_4
 L RU_11_4
 L RD_11_4
 L MUT_11_4
 L MDT_11_4
 E DEM_5
 G RES_5
 L PMAX_0_5
 G PMIN_0_5
 E SU_0_5
 L RU_0_5
 L RD_0_5
 L MUT_0_5
 L MDT_0_5
 L PMAX_1_5
 G PMIN_1_5
 E SU_1_5
 L RU_1_5
 L RD_1_5
 L MUT_1_5
 L MDT_1_5
 L PMAX_2_5
 G PMIN_2_5
 E SU_2_5
 L RU_2_5
 L RD_2_5
 L MUT_2_5
 L MDT_2_5
 L PMAX_3_5
 G PMIN_3_5
 E SU_3_5
 L RU_3_5
 L RD_3_5
 L MUT_3_5
 L MDT_3_5
 L PMAX_4_5
 G PMIN_4_5
 E SU_4_5
 L RU_4_5
 L RD_4_5
 L MUT_4_5
 L MDT_4_5
 L PMAX_5_5
 G PMIN_5_5
 E SU_5_5
 L RU_5_5
 L RD_5_5
 L MUT_5_5
 L MDT_5_5
 L PMAX_6_5
 G PMIN_6_5
 E SU_6_5
 L RU_6_5
 L RD_6_5
 L MUT_6_5
 L MDT_6_5
 L PMAX_7_5
 G PMIN_7_5
 E SU_7_5
 L RU_7_5
 L RD_7_5
 L MUT_7_5
 L MDT_7_5
 L PMAX_8_5
 G PMIN_8_5
 E SU_8_5
 L RU_8_5
 L RD_8_5
 L MUT_8_5
 L MDT_8_5
 L PMAX_9_5
 G PMIN_9_5
 E SU_9_5
 L RU_9_5
 L RD_9_5
 L MUT_9_5
 L MDT_9_5
 L PMAX_10_5
 G PMIN_10_5
 E SU_10_5
 L RU_10_5
 L RD_10_5
 L MUT_10_5
 L MDT_10_5
 L PMAX_11_5
 G PMIN_11_5
 E SU_11_5
 L RU_11_5
 L RD_11_5
 L MUT_11_5
 L MDT_11_5
 E DEM_6
 G RES_6
 L PMAX_0_6
 G PMIN_0_6
 E SU_0_6
 L RU_0_6
 L RD_0_6
 L MUT_0_6
 L MDT_0_6
 L PMAX_1_6
 G PMIN_1_6
 E SU_1_6
 L RU_1_6
 L RD_1_6
 L MUT_1_6
 L MDT_1_6
 L PMAX_2_6
 G PMIN_2_6
 E SU_2_6
 L RU_2_6
 L RD_2_6
 L MUT_2_6
 L MDT_2_6
 L PMAX_3_6
 G PMIN_3_6
 E SU_3_6
 L RU_3_6
 L RD_3_6
 L MUT_3_6
 L MDT_3_6
 L PMAX_4_6
 G PMIN_4_6
 E SU_4_6
 L RU_4_6
 L RD_4_6
 L MUT_4_6
 L MDT_4_6
 L PMAX_5_6
 G PMIN_5_6
 E SU_5_6
 L RU_5_6
 L RD_5_6
 L MUT_5_6
 L MDT_5_6
 L PMAX_6_6
 G PMIN_6_6
 E SU_6_6
 L RU_6_6
 L RD_6_6
 L MUT_6_6
 L MDT_6_6
 L PMAX_7_6
 G PMIN_7_6
 E SU_7_6
 L RU_7_6
 L RD_7_6
 L MUT_7_6
 L MDT_7_6
 L PMAX_8_6
 G PMIN_8_6
 E SU_8_6
 L RU_8_6
 L RD_8_6
 L MUT_8_6
 L MDT_8_6
 L PMAX_9_6
 G PMIN_9_6
 E SU_9_6
 L RU_9_6
 L RD_9_6
 L MUT_9_6
 L MDT_9_6
 L PMAX_10_6
 G PMIN_10_6
 E SU_10_6
 L RU_10_6
 L RD_10_6
 L MUT_10_6
 L MDT_10_6
 L PMAX_11_6
 G PMIN_11_6
 E SU_11_6
 L RU_11_6
 L RD_11_6
 L MUT_11_6
 L MDT_11_6
 E DEM_7
 G RES_7
 L PMAX_0_7
 G PMIN_0_7
 E SU_0_7
 L RU_0_7
 L RD_0_7
 L MUT_0_7
 L MDT_0_7
 L PMAX_1_7
 G PMIN_1_7
 E SU_1_7
 L RU_1_7
 L RD_1_7
 L MUT_1_7
 L MDT_1_7
 L PMAX_2_7
 G PMIN_2_7
 E SU_2_7
 L RU_2_7
 L RD_2_7
 L MUT_2_7
 L MDT_2_7
 L PMAX_3_7
 G PMIN_3_7
 E SU_3_7
 L RU_3_7
 L RD_3_7
 L MUT_3_7
 L MDT_3_7
 L PMAX_4_7
 G PMIN_4_7
 E SU_4_7
 L RU_4_7
 L RD_4_7
 L MUT_4_7
 L MDT_4_7
 L PMAX_5_7
 G PMIN_5_7
 E SU_5_7
 L RU_5_7
 L RD_5_7
 L MUT_5_7
 L MDT_5_7
 L PMAX_6_7
 G PMIN_6_7
 E SU_6_7
 L RU_6_7
 L RD_6_7
 L MUT_6_7
 L MDT_6_7
 L PMAX_7_7
 G PMIN_7_7
 E SU_7_7
 L RU_7_7
 L RD_7_7
 L MUT_7_7
 L MDT_7_7
 L PMAX_8_7
 G PMIN_8_7
 E SU_8_7
 L RU_8_7
 L RD_8_7
 L MUT_8_7
 L MDT_8_7
 L PMAX_9_7
 G PMIN_9_7
 E SU_9_7
 L RU_9_7
 L RD_9_7
 L MUT_9_7
 L MDT_9_7
 L PMAX_10_7
 G PMIN_10_7
 E SU_10_7
 L RU_10_7
 L RD_10_7
 L MUT_10_7
 L MDT_10_7
 L PMAX_11_7
 G PMIN_11_7
 E SU_11_7
 L RU_11_7
 L RD_11_7
 L MUT_11_7
 L MDT_11_7
 E DEM_8
 G RES_8
 L PMAX_0_8
 G PMIN_0_8
 E SU_0_8
 L RU_0_8
 L RD_0_8
 L MUT_0_8
 L MDT_0_8
 L PMAX_1_8
 G PMIN_1_8
 E SU_1_8
 L RU_1_8
 L RD_1_8
 L MUT_1_8
 L MDT_1_8
 L PMAX_2_8
 G PMIN_2_8
 E SU_2_8
 L RU_2_8
 L RD_2_8
 L MUT_2_8
 L MDT_2_8
 L PMAX_3_8
 G PMIN_3_8
 E SU_3_8
 L RU_3_8
 L RD_3_8
 L MUT_3_8
 L MDT_3_8
 L PMAX_4_8
 G PMIN_4_8
 E SU_4_8
 L RU_4_8
 L RD_4_8
 L MUT_4_8
 L MDT_4_8
 L PMAX_5_8
 G PMIN_5_8
 E SU_5_8
 L RU_5_8
 L RD_5_8
 L MUT_5_8
 L MDT_5_8
 L PMAX_6_8
 G PMIN_6_8
 E SU_6_8
 L RU_6_8
 L RD_6_8
 L MUT_6_8
 L MDT_6_8
 L PMAX_7_8
 G PMIN_7_8
 E SU_7_8
 L RU_7_8
 L RD_7_8
 L MUT_7_8
 L MDT_7_8
 L PMAX_8_8
 G PMIN_8_8
 E SU_8_8
 L RU_8_8
 L RD_8_8
 L MUT_8_8
 L MDT_8_8
 L PMAX_9_8
 G PMIN_9_8
 E SU_9_8
 L RU_9_8
 L RD_9_8
 L MUT_9_8
 L MDT_9_8
 L PMAX_10_8
 G PMIN_10_8
 E SU_10_8
 L RU_10_8
 L RD_10_8
 L MUT_10_8
 L MDT_10_8
 L PMAX_11_8
 G PMIN_11_8
 E SU_11_8
 L RU_11_8
 L RD_11_8
 L MUT_11_8
 L MDT_11_8
 E DEM_9
 G RES_9
 L PMAX_0_9
 G PMIN_0_9
 E SU_0_9
 L RU_0_9
 L RD_0_9
 L MUT_0_9
 L MDT_0_9
 L PMAX_1_9
 G PMIN_1_9
 E SU_1_9
 L RU_1_9
 L RD_1_9
 L MUT_1_9
 L MDT_1_9
 L PMAX_2_9
 G PMIN_2_9
 E SU_2_9
 L RU_2_9
 L RD_2_9
 L MUT_2_9
 L MDT_2_9
 L PMAX_3_9
 G PMIN_3_9
 E SU_3_9
 L RU_3_9
 L RD_3_9
 L MUT_3_9
 L MDT_3_9
 L PMAX_4_9
 G PMIN_4_9
 E SU_4_9
 L RU_4_9
 L RD_4_9
 L MUT_4_9
 L MDT_4_9
 L PMAX_5_9
 G PMIN_5_9
 E SU_5_9
 L RU_5_9
 L RD_5_9
 L MUT_5_9
 L MDT_5_9
 L PMAX_6_9
 G PMIN_6_9
 E SU_6_9
 L RU_6_9
 L RD_6_9
 L MUT_6_9
 L MDT_6_9
 L PMAX_7_9
 G PMIN_7_9
 E SU_7_9
 L RU_7_9
 L RD_7_9
 L MUT_7_9
 L MDT_7_9
 L PMAX_8_9
 G PMIN_8_9
 E SU_8_9
 L RU_8_9
 L RD_8_9
 L MUT_8_9
 L MDT_8_9
 L PMAX_9_9
 G PMIN_9_9
 E SU_9_9
 L RU_9_9
 L RD_9_9
 L MUT_9_9
 L MDT_9_9
 L PMAX_10_9
 G PMIN_10_9
 E SU_10_9
 L RU_10_9
 L RD_10_9
 L MUT_10_9
 L MDT_10_9
 L PMAX_11_9
 G PMIN_11_9
 E SU_11_9
 L RU_11_9
 L RD_11_9
 L MUT_11_9
 L MDT_11_9
 E DEM_10
 G RES_10
 L PMAX_0_10
 G PMIN_0_10
 E SU_0_10
 L RU_0_10
 L RD_0_10
 L MUT_0_10
 L MDT_0_10
 L PMAX_1_10
 G PMIN_1_10
 E SU_1_10
 L RU_1_10
 L RD_1_10
 L MUT_1_10
 L MDT_1_10
 L PMAX_2_10
 G PMIN_2_10
 E SU_2_10
 L RU_2_10
 L RD_2_10
 L MUT_2_10
 L MDT_2_10
 L PMAX_3_10
 G PMIN_3_10
 E SU_3_10
 L RU_3_10
 L RD_3_10
 L MUT_3_10
 L MDT_3_10
 L PMAX_4_10
 G PMIN_4_10
 E SU_4_10
 L RU_4_10
 L RD_4_10
 L MUT_4_10
 L MDT_4_10
 L PMAX_5_10
 G PMIN_5_10
 E SU_5_10
 L RU_5_10
 L RD_5_10
 L MUT_5_10
 L MDT_5_10
 L PMAX_6_10
 G PMIN_6_10
 E SU_6_10
 L RU_6_10
 L RD_6_10
 L MUT_6_10
 L MDT_6_10
 L PMAX_7_10
 G PMIN_7_10
 E SU_7_10
 L RU_7_10
 L RD_7_10
 L MUT_7_10
 L MDT_7_10
 L PMAX_8_10
 G PMIN_8_10
 E SU_8_10
 L RU_8_10
 L RD_8_10
 L MUT_8_10
 L MDT_8_10
 L PMAX_9_10
 G PMIN_9_10
 E SU_9_10
 L RU_9_10
 L RD_9_10
 L MUT_9_10
 L MDT_9_10
 L PMAX_10_10
 G PMIN_10_10
 E SU_10_10
 L RU_10_10
 L RD_10_10
 L MUT_10_10
 L MDT_10_10
 L PMAX_11_10
 G PMIN_11_10
 E SU_11_10
 L RU_11_10
 L RD_11_10
 L MUT_11_10
 L MDT_11_10
 E DEM_11
 G RES_11
 L PMAX_0_11
 G PMIN_0_11
 E SU_0_11
 L RU_0_11
 L RD_0_11
 L MUT_0_11
 L MDT_0_11
 L PMAX_1_11
 G PMIN_1_11
 E SU_1_11
 L RU_1_11
 L RD_1_11
 L MUT_1_11
 L MDT_1_11
 L PMAX_2_11
 G PMIN_2_11
 E SU_2_11
 L RU_2_11
 L RD_2_11
 L MUT_2_11
 L MDT_2_11
 L PMAX_3_11
 G PMIN_3_11
 E SU_3_11
 L RU_3_11
 L RD_3_11
 L MUT_3_11
 L MDT_3_11
 L PMAX_4_11
 G PMIN_4_11
 E SU_4_11
 L RU_4_11
 L RD_4_11
 L MUT_4_11
 L MDT_4_11
 L PMAX_5_11
 G PMIN_5_11
 E SU_5_11
 L RU_5_11
 L RD_5_11
 L MUT_5_11
 L MDT_5_11
 L PMAX_6_11
 G PMIN_6_11
 E SU_6_11
 L RU_6_11
 L RD_6_11
 L MUT_6_11
 L MDT_6_11
 L PMAX_7_11
 G PMIN_7_11
 E SU_7_11
 L RU_7_11
 L RD_7_11
 L MUT_7_11
 L MDT_7_11
 L PMAX_8_11
 G PMIN_8_11
 E SU_8_11
 L RU_8_11
 L RD_8_11
 L MUT_8_11
 L MDT_8_11
 L PMAX_9_11
 G PMIN_9_11
 E SU_9_11
 L RU_9_11
 L RD_9_11
 L MUT_9_11
 L MDT_9_11
 L PMAX_10_11
 G PMIN_10_11
 E SU_10_11
 L RU_10_11
 L RD_10_11
 L MUT_10_11
 L MDT_10_11
 L PMAX_11_11
 G PMIN_11_11
 E SU_11_11
 L RU_11_11
 L RD_11_11
 L MUT_11_11
 L MDT_11_11
 E DEM_12
 G RES_12
 L PMAX_0_12
 G PMIN_0_12
 E SU_0_12
 L RU_0_12
 L RD_0_12
 L MUT_0_12
 L MDT_0_12
 L PMAX_1_12
 G PMIN_1_12
 E SU_1_12
 L RU_1_12
 L RD_1_12
 L MUT_1_12
 L MDT_1_12
 L PMAX_2_12
 G PMIN_2_12
 E SU_2_12
 L RU_2_12
 L RD_2_12
 L MUT_2_12
 L MDT_2_12
 L PMAX_3_12
 G PMIN_3_12
 E SU_3_12
 L RU_3_12
 L RD_3_12
 L MUT_3_12
 L MDT_3_12
 L PMAX_4_12
 G PMIN_4_12
 E SU_4_12
 L RU_4_12
 L RD_4_12
 L MUT_4_12
 L MDT_4_12
 L PMAX_5_12
 G PMIN_5_12
 E SU_5_12
 L RU_5_12
 L RD_5_12
 L MUT_5_12
 L MDT_5_12
 L PMAX_6_12
 G PMIN_6_12
 E SU_6_12
 L RU_6_12
 L RD_6_12
 L MUT_6_12
 L MDT_6_12
 L PMAX_7_12
 G PMIN_7_12
 E SU_7_12
 L RU_7_12
 L RD_7_12
 L MUT_7_12
 L MDT_7_12
 L PMAX_8_12
 G PMIN_8_12
 E SU_8_12
 L RU_8_12
 L RD_8_12
 L MUT_8_12
 L MDT_8_12
 L PMAX_9_12
 G PMIN_9_12
 E SU_9_12
 L RU_9_12
 L RD_9_12
 L MUT_9_12
 L MDT_9_12
 L PMAX_10_12
 G PMIN_10_12
 E SU_10_12
 L RU_10_12
 L RD_10_12
 L MUT_10_12
 L MDT_10_12
 L PMAX_11_12
 G PMIN_11_12
 E SU_11_12
 L RU_11_12
 L RD_11_12
 L MUT_11_12
 L MDT_11_12
 E DEM_13
 G RES_13
 L PMAX_0_13
 G PMIN_0_13
 E SU_0_13
 L RU_0_13
 L RD_0_13
 L MUT_0_13
 L MDT_0_13
 L PMAX_1_13
 G PMIN_1_13
 E SU_1_13
 L RU_1_13
 L RD_1_13
 L MUT_1_13
 L MDT_1_13
 L PMAX_2_13
 G PMIN_2_13
 E SU_2_13
 L RU_2_13
 L RD_2_13
 L MUT_2_13
 L MDT_2_13
 L PMAX_3_13
 G PMIN_3_13
 E SU_3_13
 L RU_3_13
 L RD_3_13
 L MUT_3_13
 L MDT_3_13
 L PMAX_4_13
 G PMIN_4_13
 E SU_4_13
 L RU_4_13
 L RD_4_13
 L MUT_4_13
 L MDT_4_13
 L PMAX_5_13
 G PMIN_5_13
 E SU_5_13
 L RU_5_13
 L RD_5_13
 L MUT_5_13
 L MDT_5_13
 L PMAX_6_13
 G PMIN_6_13
 E SU_6_13
 L RU_6_13
 L RD_6_13
 L MUT_6_13
 L MDT_6_13
 L PMAX_7_13
 G PMIN_7_13
 E SU_7_13
 L RU_7_13
 L RD_7_13
 L MUT_7_13
 L MDT_7_13
 L PMAX_8_13
 G PMIN_8_13
 E SU_8_13
 L RU_8_13
 L RD_8_13
 L MUT_8_13
 L MDT_8_13
 L PMAX_9_13
 G PMIN_9_13
 E SU_9_13
 L RU_9_13
 L RD_9_13
 L MUT_9_13
 L MDT_9_13
 L PMAX_10_13
 G PMIN_10_13
 E SU_10_13
 L RU_10_13
 L RD_10_13
 L MUT_10_13
 L MDT_10_13
 L PMAX_11_13
 G PMIN_11_13
 E SU_11_13
 L RU_11_13
 L RD_11_13
 L MUT_11_13
 L MDT_11_13
 E DEM_14
 G RES_14
 L PMAX_0_14
 G PMIN_0_14
 E SU_0_14
 L RU_0_14
 L RD_0_14
 L MUT_0_14
 L MDT_0_14
 L PMAX_1_14
 G PMIN_1_14
 E SU_1_14
 L RU_1_14
 L RD_1_14
 L MUT_1_14
 L MDT_1_14
 L PMAX_2_14
 G PMIN_2_14
 E SU_2_14
 L RU_2_14
 L RD_2_14
 L MUT_2_14
 L MDT_2_14
 L PMAX_3_14
 G PMIN_3_14
 E SU_3_14
 L RU_3_14
 L RD_3_14
 L MUT_3_14
 L MDT_3_14
 L PMAX_4_14
 G PMIN_4_14
 E SU_4_14
 L RU_4_14
 L RD_4_14
 L MUT_4_14
 L MDT_4_14
 L PMAX_5_14
 G PMIN_5_14
 E SU_5_14
 L RU_5_14
 L RD_5_14
 L MUT_5_14
 L MDT_5_14
 L PMAX_6_14
 G PMIN_6_14
 E SU_6_14
 L RU_6_14
 L RD_6_14
 L MUT_6_14
 L MDT_6_14
 L PMAX_7_14
 G PMIN_7_14
 E SU_7_14
 L RU_7_14
 L RD_7_14
 L MUT_7_14
 L MDT_7_14
 L PMAX_8_14
 G PMIN_8_14
 E SU_8_14
 L RU_8_14
 L RD_8_14
 L MUT_8_14
 L MDT_8_14
 L PMAX_9_14
 G PMIN_9_14
 E SU_9_14
 L RU_9_14
 L RD_9_14
 L MUT_9_14
 L MDT_9_14
 L PMAX_10_14
 G PMIN_10_14
 E SU_10_14
 L RU_10_14
 L RD_10_14
 L MUT_10_14
 L MDT_10_14
 L PMAX_11_14
 G PMIN_11_14
 E SU_11_14
 L RU_11_14
 L RD_11_14
 L MUT_11_14
 L MDT_11_14
 E DEM_15
 G RES_15
 L PMAX_0_15
 G PMIN_0_15
 E SU_0_15
 L RU_0_15
 L RD_0_15
 L MUT_0_15
 L MDT_0_15
 L PMAX_1_15
 G PMIN_1_15
 E SU_1_15
 L RU_1_15
 L RD_1_15
 L MUT_1_15
 L MDT_1_15
 L PMAX_2_15
 G PMIN_2_15
 E SU_2_15
 L RU_2_15
 L RD_2_15
 L MUT_2_15
 L MDT_2_15
 L PMAX_3_15
 G PMIN_3_15
 E SU_3_15
 L RU_3_15
 L RD_3_15
 L MUT_3_15
 L MDT_3_15
 L PMAX_4_15
 G PMIN_4_15
 E SU_4_15
 L RU_4_15
 L RD_4_15
 L MUT_4_15
 L MDT_4_15
 L PMAX_5_15
 G PMIN_5_15
 E SU_5_15
 L RU_5_15
 L RD_5_15
 L MUT_5_15
 L MDT_5_15
 L PMAX_6_15
 G PMIN_6_15
 E SU_6_15
 L RU_6_15
 L RD_6_15
 L MUT_6_15
 L MDT_6_15
 L PMAX_7_15
 G PMIN_7_15
 E SU_7_15
 L RU_7_15
 L RD_7_15
 L MUT_7_15
 L MDT_7_15
 L PMAX_8_15
 G PMIN_8_15
 E SU_8_15
 L RU_8_15
 L RD_8_15
 L MUT_8_15
 L MDT_8_15
 L PMAX_9_15
 G PMIN_9_15
 E SU_9_15
 L RU_9_15
 L RD_9_15
 L MUT_9_15
 L MDT_9_15
 L PMAX_10_15
 G PMIN_10_15
 E SU_10_15
 L RU_10_15
 L RD_10_15
 L MUT_10_15
 L MDT_10_15
 L PMAX_11_15
 G PMIN_11_15
 E SU_11_15
 L RU_11_15
 L RD_11_15
 L MUT_11_15
 L MDT_11_15
 E DEM_16
 G RES_16
 L PMAX_0_16
 G PMIN_0_16
 E SU_0_16
 L RU_0_16
 L RD_0_16
 L MUT_0_16
 L MDT_0_16
 L PMAX_1_16
 G PMIN_1_16
 E SU_1_16
 L RU_1_16
 L RD_1_16
 L MUT_1_16
 L MDT_1_16
 L PMAX_2_16
 G PMIN_2_16
 E SU_2_16
 L RU_2_16
 L RD_2_16
 L MUT_2_16
 L MDT_2_16
 L PMAX_3_16
 G PMIN_3_16
 E SU_3_16
 L RU_3_16
 L RD_3_16
 L MUT_3_16
 L MDT_3_16
 L PMAX_4_16
 G PMIN_4_16
 E SU_4_16
 L RU_4_16
 L RD_4_16
 L MUT_4_16
 L MDT_4_16
 L PMAX_5_16
 G PMIN_5_16
 E SU_5_16
 L RU_5_16
 L RD_5_16
 L MUT_5_16
 L MDT_5_16
 L PMAX_6_16
 G PMIN_6_16
 E SU_6_16
 L RU_6_16
 L RD_6_16
 L MUT_6_16
 L MDT_6_16
 L PMAX_7_16
 G PMIN_7_16
 E SU_7_16
 L RU_7_16
 L RD_7_16
 L MUT_7_16
 L MDT_7_16
 L PMAX_8_16
 G PMIN_8_16
 E SU_8_16
 L RU_8_16
 L RD_8_16
 L MUT_8_16
 L MDT_8_16
 L PMAX_9_16
 G PMIN_9_16
 E SU_9_16
 L RU_9_16
 L RD_9_16
 L MUT_9_16
 L MDT_9_16
 L PMAX_10_16
 G PMIN_10_16
 E SU_10_16
 L RU_10_16
 L RD_10_16
 L MUT_10_16
 L MDT_10_16
 L PMAX_11_16
 G PMIN_11_16
 E SU_11_16
 L RU_11_16
 L RD_11_16
 L MUT_11_16
 L MDT_11_16
 E DEM_17
 G RES_17
 L PMAX_0_17
 G PMIN_0_17
 E SU_0_17
 L RU_0_17
 L RD_0_17
 L MUT_0_17
 L MDT_0_17
 L PMAX_1_17
 G PMIN_1_17
 E SU_1_17
 L RU_1_17
 L RD_1_17
 L MUT_1_17
 L MDT_1_17
 L PMAX_2_17
 G PMIN_2_17
 E SU_2_17
 L RU_2_17
 L RD_2_17
 L MUT_2_17
 L MDT_2_17
 L PMAX_3_17
 G PMIN_3_17
 E SU_3_17
 L RU_3_17
 L RD_3_17
 L MUT_3_17
 L MDT_3_17
 L PMAX_4_17
 G PMIN_4_17
 E SU_4_17
 L RU_4_17
 L RD_4_17
 L MUT_4_17
 L MDT_4_17
 L PMAX_5_17
 G PMIN_5_17
 E SU_5_17
 L RU_5_17
 L RD_5_17
 L MUT_5_17
 L MDT_5_17
 L PMAX_6_17
 G PMIN_6_17
 E SU_6_17
 L RU_6_17
 L RD_6_17
 L MUT_6_17
 L MDT_6_17
 L PMAX_7_17
 G PMIN_7_17
 E SU_7_17
 L RU_7_17
 L RD_7_17
 L MUT_7_17
 L MDT_7_17
 L PMAX_8_17
 G PMIN_8_17
 E SU_8_17
 L RU_8_17
 L RD_8_17
 L MUT_8_17
 L MDT_8_17
 L PMAX_9_17
 G PMIN_9_17
 E SU_9_17
 L RU_9_17
 L RD_9_17
 L MUT_9_17
 L MDT_9_17
 L PMAX_10_17
 G PMIN_10_17
 E SU_10_17
 L RU_10_17
 L RD_10_17
 L MUT_10_17
 L MDT_10_17
 L PMAX_11_17
 G PMIN_11_17
 E SU_11_17
 L RU_11_17
 L RD_11_17
 L MUT_11_17
 L MDT_11_17
 E DEM_18
 G RES_18
 L PMAX_0_18
 G PMIN_0_18
 E SU_0_18
 L RU_0_18
 L RD_0_18
 L MUT_0_18
 L MDT_0_18
 L PMAX_1_18
 G PMIN_1_18
 E SU_1_18
 L RU_1_18
 L RD_1_18
 L MUT_1_18
 L MDT_1_18
 L PMAX_2_18
 G PMIN_2_18
 E SU_2_18
 L RU_2_18
 L RD_2_18
 L MUT_2_18
 L MDT_2_18
 L PMAX_3_18
 G PMIN_3_18
 E SU_3_18
 L RU_3_18
 L RD_3_18
 L MUT_3_18
 L MDT_3_18
 L PMAX_4_18
 G PMIN_4_18
 E SU_4_18
 L RU_4_18
 L RD_4_18
 L MUT_4_18
 L MDT_4_18
 L PMAX_5_18
 G PMIN_5_18
 E SU_5_18
 L RU_5_18
 L RD_5_18
 L MUT_5_18
 L MDT_5_18
 L PMAX_6_18
 G PMIN_6_18
 E SU_6_18
 L RU_6_18
 L RD_6_18
 L MUT_6_18
 L MDT_6_18
 L PMAX_7_18
 G PMIN_7_18
 E SU_7_18
 L RU_7_18
 L RD_7_18
 L MUT_7_18
 L MDT_7_18
 L PMAX_8_18
 G PMIN_8_18
 E SU_8_18
 L RU_8_18
 L RD_8_18
 L MUT_8_18
 L MDT_8_18
 L PMAX_9_18
 G PMIN_9_18
 E SU_9_18
 L RU_9_18
 L RD_9_18
 L MUT_9_18
 L MDT_9_18
 L PMAX_10_18
 G PMIN_10_18
 E SU_10_18
 L RU_10_18
 L RD_10_18
 L MUT_10_18
 L MDT_10_18
 L PMAX_11_18
 G PMIN_11_18
 E SU_11_18
 L RU_11_18
 L RD_11_18
 L MUT_11_18
 L MDT_11_18
 E DEM_19
 G RES_19
 L PMAX_0_19
 G PMIN_0_19
 E SU_0_19
 L RU_0_19
 L RD_0_19
 L MUT_0_19
 L MDT_0_19
 L PMAX_1_19
 G PMIN_1_19
 E SU_1_19
 L RU_1_19
 L RD_1_19
 L MUT_1_19
 L MDT_1_19
 L PMAX_2_19
 G PMIN_2_19
 E SU_2_19
 L RU_2_19
 L RD_2_19
 L MUT_2_19
 L MDT_2_19
 L PMAX_3_19
 G PMIN_3_19
 E SU_3_19
 L RU_3_19
 L RD_3_19
 L MUT_3_19
 L MDT_3_19
 L PMAX_4_19
 G PMIN_4_19
 E SU_4_19
 L RU_4_19
 L RD_4_19
 L MUT_4_19
 L MDT_4_19
 L PMAX_5_19
 G PMIN_5_19
 E SU_5_19
 L RU_5_19
 L RD_5_19
 L MUT_5_19
 L MDT_5_19
 L PMAX_6_19
 G PMIN_6_19
 E SU_6_19
 L RU_6_19
 L RD_6_19
 L MUT_6_19
 L MDT_6_19
 L PMAX_7_19
 G PMIN_7_19
 E SU_7_19
 L RU_7_19
 L RD_7_19
 L MUT_7_19
 L MDT_7_19
 L PMAX_8_19
 G PMIN_8_19
 E SU_8_19
 L RU_8_19
 L RD_8_19
 L MUT_8_19
 L MDT_8_19
 L PMAX_9_19
 G PMIN_9_19
 E SU_9_19
 L RU_9_19
 L RD_9_19
 L MUT_9_19
 L MDT_9_19
 L PMAX_10_19
 G PMIN_10_19
 E SU_10_19
 L RU_10_19
 L RD_10_19
 L MUT_10_19
 L MDT_10_19
 L PMAX_11_19
 G PMIN_11_19
 E SU_11_19
 L RU_11_19
 L RD_11_19
 L MUT_11_19
 L MDT_11_19
 E DEM_20
 G RES_20
 L PMAX_0_20
 G PMIN_0_20
 E SU_0_20
 L RU_0_20
 L RD_0_20
 L MUT_0_20
 L MDT_0_20
 L PMAX_1_20
 G PMIN_1_20
 E SU_1_20
 L RU_1_20
 L RD_1_20
 L MUT_1_20
 L MDT_1_20
 L PMAX_2_20
 G PMIN_2_20
 E SU_2_20
 L RU_2_20
 L RD_2_20
 L MUT_2_20
 L MDT_2_20
 L PMAX_3_20
 G PMIN_3_20
 E SU_3_20
 L RU_3_20
 L RD_3_20
 L MUT_3_20
 L MDT_3_20
 L PMAX_4_20
 G PMIN_4_20
 E SU_4_20
 L RU_4_20
 L RD_4_20
 L MUT_4_20
 L MDT_4_20
 L PMAX_5_20
 G PMIN_5_20
 E SU_5_20
 L RU_5_20
 L RD_5_20
 L MUT_5_20
 L MDT_5_20
 L PMAX_6_20
 G PMIN_6_20
 E SU_6_20
 L RU_6_20
 L RD_6_20
 L MUT_6_20
 L MDT_6_20
 L PMAX_7_20
 G PMIN_7_20
 E SU_7_20
 L RU_7_20
 L RD_7_20
 L MUT_7_20
 L MDT_7_20
 L PMAX_8_20
 G PMIN_8_20
 E SU_8_20
 L RU_8_20
 L RD_8_20
 L MUT_8_20
 L MDT_8_20
 L PMAX_9_20
 G PMIN_9_20
 E SU_9_20
 L RU_9_20
 L RD_9_20
 L MUT_9_20
 L MDT_9_20
 L PMAX_10_20
 G PMIN_10_20
 E SU_10_20
 L RU_10_20
 L RD_10_20
 L MUT_10_20
 L MDT_10_20
 L PMAX_11_20
 G PMIN_11_20
 E SU_11_20
 L RU_11_20
 L RD_11_20
 L MUT_11_20
 L MDT_11_20
 E DEM_21
 G RES_21
 L PMAX_0_21
 G PMIN_0_21
 E SU_0_21
 L RU_0_21
 L RD_0_21
 L MUT_0_21
 L MDT_0_21
 L PMAX_1_21
 G PMIN_1_21
 E SU_1_21
 L RU_1_21
 L RD_1_21
 L MUT_1_21
 L MDT_1_21
 L PMAX_2_21
 G PMIN_2_21
 E SU_2_21
 L RU_2_21
 L RD_2_21
 L MUT_2_21
 L MDT_2_21
 L PMAX_3_21
 G PMIN_3_21
 E SU_3_21
 L RU_3_21
 L RD_3_21
 L MUT_3_21
 L MDT_3_21
 L PMAX_4_21
 G PMIN_4_21
 E SU_4_21
 L RU_4_21
 L RD_4_21
 L MUT_4_21
 L MDT_4_21
 L PMAX_5_21
 G PMIN_5_21
 E SU_5_21
 L RU_5_21
 L RD_5_21
 L MUT_5_21
 L MDT_5_21
 L PMAX_6_21
 G PMIN_6_21
 E SU_6_21
 L RU_6_21
 L RD_6_21
 L MUT_6_21
 L MDT_6_21
 L PMAX_7_21
 G PMIN_7_21
 E SU_7_21
 L RU_7_21
 L RD_7_21
 L MUT_7_21
 L MDT_7_21
 L PMAX_8_21
 G PMIN_8_21
 E SU_8_21
 L RU_8_21
 L RD_8_21
 L MUT_8_21
 L MDT_8_21
 L PMAX_9_21
 G PMIN_9_21
 E SU_9_21
 L RU_9_21
 L RD_9_21
 L MUT_9_21
 L MDT_9_21
 L PMAX_10_21
 G PMIN_10_21
 E SU_10_21
 L RU_10_21
 L RD_10_21
 L MUT_10_21
 L MDT_10_21
 L PMAX_11_21
 G PMIN_11_21
 E SU_11_21
 L RU_11_21
 L RD_11_21
 L MUT_11_21
 L MDT_11_21
 E DEM_22
 G RES_22
 L PMAX_0_22
 G PMIN_0_22
 E SU_0_22
 L RU_0_22
 L RD_0_22
 L MUT_0_22
 L MDT_0_22
 L PMAX_1_22
 G PMIN_1_22
 E SU_1_22
 L RU_1_22
 L RD_1_22
 L MUT_1_22
 L MDT_1_22
 L PMAX_2_22
 G PMIN_2_22
 E SU_2_22
 L RU_2_22
 L RD_2_22
 L MUT_2_22
 L MDT_2_22
 L PMAX_3_22
 G PMIN_3_22
 E SU_3_22
 L RU_3_22
 L RD_3_22
 L MUT_3_22
 L MDT_3_22
 L PMAX_4_22
 G PMIN_4_22
 E SU_4_22
 L RU_4_22
 L RD_4_22
 L MUT_4_22
 L MDT_4_22
 L PMAX_5_22
 G PMIN_5_22
 E SU_5_22
 L RU_5_22
 L RD_5_22
 L MUT_5_22
 L MDT_5_22
 L PMAX_6_22
 G PMIN_6_22
 E SU_6_22
 L RU_6_22
 L RD_6_22
 L MUT_6_22
 L MDT_6_22
 L PMAX_7_22
 G PMIN_7_22
 E SU_7_22
 L RU_7_22
 L RD_7_22
 L MUT_7_22
 L MDT_7_22
 L PMAX_8_22
 G PMIN_8_22
 E SU_8_22
 L RU_8_22
 L RD_8_22
 L MUT_8_22
 L MDT_8_22
 L PMAX_9_22
 G PMIN_9_22
 E SU_9_22
 L RU_9_22
 L RD_9_22
 L MUT_9_22
 L MDT_9_22
 L PMAX_10_22
 G PMIN_10_22
 E SU_10_22
 L RU_10_22
 L RD_10_22
 L MUT_10_22
 L MDT_10_22
 L PMAX_11_22
 G PMIN_11_22
 E SU_11_22
 L RU_11_22
 L RD_11_22
 L MUT_11_22
 L MDT_11_22
 E DEM_23
 G RES_23
 L PMAX_0_23
 G PMIN_0_23
 E SU_0_23
 L RU_0_23
 L RD_0_23
 L MUT_0_23
 L MDT_0_23
 L PMAX_1_23
 G PMIN_1_23
 E SU_1_23
 L RU_1_23
 L RD_1_23
 L MUT_1_23
 L MDT_1_23
 L PMAX_2_23
 G PMIN_2_23
 E SU_2_23
 L RU_2_23
 L RD_2_23
 L MUT_2_23
 L MDT_2_23
 L PMAX_3_23
 G PMIN_3_23
 E SU_3_23
 L RU_3_23
 L RD_3_23
 L MUT_3_23
 L MDT_3_23
 L PMAX_4_23
 G PMIN_4_23
 E SU_4_23
 L RU_4_23
 L RD_4_23
 L MUT_4_23
 L MDT_4_23
 L PMAX_5_23
 G PMIN_5_23
 E SU_5_23
 L RU_5_23
 L RD_5_23
 L MUT_5_23
 L MDT_5_23
 L PMAX_6_23
 G PMIN_6_23
 E SU_6_23
 L RU_6_23
 L RD_6_23
 L MUT_6_23
 L MDT_6_23
 L PMAX_7_23
 G PMIN_7_23
 E SU_7_23
 L RU_7_23
 L RD_7_23
 L MUT_7_23
 L MDT_7_23
 L PMAX_8_23
 G PMIN_8_23
 E SU_8_23
 L RU_8_23
 L RD_8_23
 L MUT_8_23
 L MDT_8_23
 L PMAX_9_23
 G PMIN_9_23
 E SU_9_23
 L RU_9_23
 L RD_9_23
 L MUT_9_23
 L MDT_9_23
 L PMAX_10_23
 G PMIN_10_23
 E SU_10_23
 L RU_10_23
 L RD_10_23
 L MUT_10_23
 L MDT_10_23
 L PMAX_11_23
 G PMIN_11_23
 E SU_11_23
 L RU_11_23
 L RD_11_23
 L MUT_11_23
 L MDT_11_23
COLUMNS
    MARKER 'MARKER' 'INTORG'
    U_0_0 OBJ 501.84639
    U_0_0 RES_0 400
    U_0_0 PMAX_0_0 -400
    U_0_0 PMIN_0_0 -193.7393
    U_0_0 SU_0_0 -1
    U_0_0 SU_0_1 1
    U_0_0 RU_0_1 -237.7552
    U_0_0 MUT_0_0 -1
    U_0_0 MDT_0_0 1
    MARKER 'MARKER' 'INTEND'
    V_0_0 OBJ 28051.973
    V_0_0 SU_0_0 1
    V_0_0 MUT_0_0 1
    V_0_0 MUT_0_1 1
    V_0_0 MUT_0_2 1
    W_0_0 SU_0_0 -1
    W_0_0 MDT_0_0 1
    W_0_0 MDT_0_1 1
    W_0_0 MDT_0_2 1
    P_0_0 OBJ 17.544812
    P_0_0 DEM_0 1
    P_0_0 PMAX_0_0 1
    P_0_0 PMIN_0_0 1
    P_0_0 RU_0_1 -1
    P_0_0 RD_0_1 1
    MARKER 'MARKER' 'INTORG'
    U_1_0 OBJ 799.83128
    U_1_0 RES_0 200
    U_1_0 PMAX_1_0 -200
    U_1_0 PMIN_1_0 -42.144067
    U_1_0 SU_1_0 -1
    U_1_0 SU_1_1 1
    U_1_0 RU_1_1 -124.29356
    U_1_0 MUT_1_0 -1
    U_1_0 MDT_1_0 1
    MARKER 'MARKER' 'INTEND'
    V_1_0 OBJ 11661.656
    V_1_0 SU_1_0 1
    V_1_0 MUT_1_0 1
    V_1_0 MUT_1_1 1
    V_1_0 MUT_1_2 1
    V_1_0 MUT_1_3 1
    V_1_0 MUT_1_4 1
    W_1_0 SU_1_0 -1
    W_1_0 MDT_1_0 1
    W_1_0 MDT_1_1 1
    W_1_0 MDT_1_2 1
    P_1_0 OBJ 45.656078
    P_1_0 DEM_0 1
    P_1_0 PMAX_1_0 1
    P_1_0 PMIN_1_0 1
    P_1_0 RU_1_1 -1
    P_1_0 RD_1_1 1
    MARKER 'MARKER' 'INTORG'
    U_2_0 OBJ 541.96484
    U_2_0 RES_0 150
    U_2_0 PMAX_2_0 -150
    U_2_0 PMIN_2_0 -52.593028
    U_2_0 SU_2_0 -1
    U_2_0 SU_2_1 1
    U_2_0 RU_2_1 -100.91079
    U_2_0 MUT_2_0 -1
    U_2_0 MDT_2_0 1
    MARKER 'MARKER' 'INTEND'
    V_2_0 OBJ 6276.1299
    V_2_0 SU_2_0 1
    V_2_0 MUT_2_0 1
    V_2_0 MUT_2_1 1
    V_2_0 MUT_2_2 1
    V_2_0 MUT_2_3 1
    W_2_0 SU_2_0 -1
    W_2_0 MDT_2_0 1
    W_2_0 MDT_2_1 1
    W_2_0 MDT_2_2 1
    W_2_0 MDT_2_3 1
    P_2_0 OBJ 55.554351
    P_2_0 DEM_0 1
    P_2_0 PMAX_2_0 1
    P_2_0 PMIN_2_0 1
    P_2_0 RU_2_1 -1
    P_2_0 RD_2_1 1
    MARKER 'MARKER' 'INTORG'
    U_3_0 OBJ 338.3616
    U_3_0 RES_0 200
    U_3_0 PMAX_3_0 -200
    U_3_0 PMIN_3_0 -49.869305
    U_3_0 SU_3_0 -1
    U_3_0 SU_3_1 1
    U_3_0 RU_3_1 -73.8871
    U_3_0 MUT_3_0 -1
    U_3_0 MDT_3_0 1
    MARKER 'MARKER' 'INTEND'
    V_3_0 OBJ 6120.6398
    V_3_0 SU_3_0 1
    V_3_0 MUT_3_0 1
    V_3_0 MUT_3_1 1
    V_3_0 MUT_3_2 1
    V_3_0 MUT_3_3 1
    V_3_0 MUT_3_4 1
    W_3_0 SU_3_0 -1
    W_3_0 MDT_3_0 1
    W_3_0 MDT_3_1 1
    W_3_0 MDT_3_2 1
    P_3_0 OBJ 22.98464
    P_3_0 DEM_0 1
    P_3_0 PMAX_3_0 1
    P_3_0 PMIN_3_0 1
    P_3_0 RU_3_1 -1
    P_3_0 RD_3_1 1
    MARKER 'MARKER' 'INTORG'
    U_4_0 OBJ 701.07385
    U_4_0 RES_0 300
    U_4_0 PMAX_4_0 -300
    U_4_0 PMIN_4_0 -110.39013
    U_4_0 SU_4_0 -1
    U_4_0 SU_4_1 1
    U_4_0 RU_4_1 -153.04389
    U_4_0 MUT_4_0 -1
    U_4_0 MDT_4_0 1
    MARKER 'MARKER' 'INTEND'
    V_4_0 OBJ 13464.078
    V_4_0 SU_4_0 1
    V_4_0 MUT_4_0 1
    V_4_0 MUT_4_1 1
    V_4_0 MUT_4_2 1
    W_4_0 SU_4_0 -1
    W_4_0 MDT_4_0 1
    W_4_0 MDT_4_1 1
    W_4_0 MDT_4_2 1
    P_4_0 OBJ 59.782995
    P_4_0 DEM_0 1
    P_4_0 PMAX_4_0 1
    P_4_0 PMIN_4_0 1
    P_4_0 RU_4_1 -1
    P_4_0 RD_4_1 1
    MARKER 'MARKER' 'INTORG'
    U_5_0 OBJ 1304.8049
    U_5_0 RES_0 400
    U_5_0 PMAX_5_0 -400
    U_5_0 PMIN_5_0 -195.42811
    U_5_0 SU_5_0 -1
    U_5_0 SU_5_1 1
    U_5_0 RU_5_1 -193.82507
    U_5_0 MUT_5_0 -1
    U_5_0 MDT_5_0 1
    MARKER 'MARKER' 'INTEND'
    V_5_0 OBJ 25163.622
    V_5_0 SU_5_0 1
    V_5_0 MUT_5_0 1
    V_5_0 MUT_5_1 1
    V_5_0 MUT_5_2 1
    V_5_0 MUT_5_3 1
    V_5_0 MUT_5_4 1
    W_5_0 SU_5_0 -1
    W_5_0 MDT_5_0 1
    W_5_0 MDT_5_1 1
    P_5_0 OBJ 22.253309
    P_5_0 DEM_0 1
    P_5_0 PMAX_5_0 1
    P_5_0 PMIN_5_0 1
    P_5_0 RU_5_1 -1
    P_5_0 RD_5_1 1
    MARKER 'MARKER' 'INTORG'
    U_6_0 OBJ 309.26589
    U_6_0 RES_0 150
    U_6_0 PMAX_6_0 -150
    U_6_0 PMIN_6_0 -52.537848
    U_6_0 SU_6_0 -1
    U_6_0 SU_6_1 1
    U_6_0 RU_6_1 -98.982035
    U_6_0 MUT_6_0 -1
    U_6_0 MDT_6_0 1
    MARKER 'MARKER' 'INTEND'
    V_6_0 OBJ 10945.658
    V_6_0 SU_6_0 1
    V_6_0 MUT_6_0 1
    V_6_0 MUT_6_1 1
    V_6_0 MUT_6_2 1
    V_6_0 MUT_6_3 1
    W_6_0 SU_6_0 -1
    W_6_0 MDT_6_0 1
    W_6_0 MDT_6_1 1
    W_6_0 MDT_6_2 1
    P_6_0 OBJ 52.418602
    P_6_0 DEM_0 1
    P_6_0 PMAX_6_0 1
    P_6_0 PMIN_6_0 1
    P_6_0 RU_6_1 -1
    P_6_0 RD_6_1 1
    MARKER 'MARKER' 'INTORG'
    U_7_0 OBJ 333.08661
    U_7_0 RES_0 200
    U_7_0 PMAX_7_0 -200
    U_7_0 PMIN_7_0 -83.426377
    U_7_0 SU_7_0 -1
    U_7_0 SU_7_1 1
    U_7_0 RU_7_1 -115.96573
    U_7_0 MUT_7_0 -1
    U_7_0 MDT_7_0 1
    MARKER 'MARKER' 'INTEND'
    V_7_0 OBJ 7896.0069
    V_7_0 SU_7_0 1
    V_7_0 MUT_7_0 1
    V_7_0 MUT_7_1 1
    W_7_0 SU_7_0 -1
    W_7_0 MDT_7_0 1
    W_7_0 MDT_7_1 1
    W_7_0 MDT_7_2 1
    P_7_0 OBJ 36.897385
    P_7_0 DEM_0 1
    P_7_0 PMAX_7_0 1
    P_7_0 PMIN_7_0 1
    P_7_0 RU_7_1 -1
    P_7_0 RD_7_1 1
    MARKER 'MARKER' 'INTORG'
    U_8_0 OBJ 467.79261
    U_8_0 RES_0 150
    U_8_0 PMAX_8_0 -150
    U_8_0 PMIN_8_0 -43.930341
    U_8_0 SU_8_0 -1
    U_8_0 SU_8_1 1
    U_8_0 RU_8_1 -76.064865
    U_8_0 MUT_8_0 -1
    U_8_0 MDT_8_0 1
    MARKER 'MARKER' 'INTEND'
    V_8_0 OBJ 7538.2394
    V_8_0 SU_8_0 1
    V_8_0 MUT_8_0 1
    V_8_0 MUT_8_1 1
    V_8_0 MUT_8_2 1
    V_8_0 MUT_8_3 1
    V_8_0 MUT_8_4 1
    W_8_0 SU_8_0 -1
    W_8_0 MDT_8_0 1
    W_8_0 MDT_8_1 1
    W_8_0 MDT_8_2 1
    W_8_0 MDT_8_3 1
    P_8_0 OBJ 58.081277
    P_8_0 DEM_0 1
    P_8_0 PMAX_8_0 1
    P_8_0 PMIN_8_0 1
    P_8_0 RU_8_1 -1
    P_8_0 RD_8_1 1
    MARKER 'MARKER' 'INTORG'
    U_9_0 OBJ 244.21564
    U_9_0 RES_0 80
    U_9_0 PMAX_9_0 -80
    U_9_0 PMIN_9_0 -27.733755
    U_9_0 SU_9_0 -1
    U_9_0 SU_9_1 1
    U_9_0 RU_9_1 -49.096955
    U_9_0 MUT_9_0 -1
    U_9_0 MDT_9_0 1
    MARKER 'MARKER' 'INTEND'
    V_9_0 OBJ 5833.9338
    V_9_0 SU_9_0 1
    V_9_0 MUT_9_0 1
    V_9_0 MUT_9_1 1
    V_9_0 MUT_9_2 1
    W_9_0 SU_9_0 -1
    W_9_0 MDT_9_0 1
    P_9_0 OBJ 40.945998
    P_9_0 DEM_0 1
    P_9_0 PMAX_9_0 1
    P_9_0 PMIN_9_0 1
    P_9_0 RU_9_1 -1
    P_9_0 RD_9_1 1
    MARKER 'MARKER' 'INTORG'
    U_10_0 OBJ 217.85959
    U_10_0 RES_0 80
    U_10_0 PMAX_10_0 -80
    U_10_0 PMIN_10_0 -39.929646
    U_10_0 SU_10_0 -1
    U_10_0 SU_10_1 1
    U_10_0 RU_10_1 -42.93441
    U_10_0 MUT_10_0 -1
    U_10_0 MDT_10_0 1
    MARKER 'MARKER' 'INTEND'
    V_10_0 OBJ 1834.7686
    V_10_0 SU_10_0 1
    V_10_0 MUT_10_0 1
    W_10_0 SU_10_0 -1
    W_10_0 MDT_10_0 1
    W_10_0 MDT_10_1 1
    P_10_0 OBJ 25.71018
    P_10_0 DEM_0 1
    P_10_0 PMAX_10_0 1
    P_10_0 PMIN_10_0 1
    P_10_0 RU_10_1 -1
    P_10_0 RD_10_1 1
    MARKER 'MARKER' 'INTORG'
    U_11_0 OBJ 94.492357
    U_11_0 RES_0 80
    U_11_0 PMAX_11_0 -80
    U_11_0 PMIN_11_0 -35.79394
    U_11_0 SU_11_0 -1
    U_11_0 SU_11_1 1
    U_11_0 RU_11_1 -48.30109
    U_11_0 MUT_11_0 -1
    U_11_0 MDT_11_0 1
    MARKER 'MARKER' 'INTEND'
    V_11_0 OBJ 5910.2458
    V_11_0 SU_11_0 1
    V_11_0 MUT_11_0 1
    W_11_0 SU_11_0 -1
    W_11_0 MDT_11_0 1
    W_11_0 MDT_11_1 1
    W_11_0 MDT_11_2 1
    P_11_0 OBJ 74.699486
    P_11_0 DEM_0 1
    P_11_0 PMAX_11_0 1
    P_11_0 PMIN_11_0 1
    P_11_0 RU_11_1 -1
    P_11_0 RD_11_1 1
    SHED_0 OBJ 1000
    SHED_0 DEM_0 1
    SHED_0 RES_0 1.1
    MARKER 'MARKER' 'INTORG'
    U_0_1 OBJ 501.84639
    U_0_1 RES_1 400
    U_0_1 PMAX_0_1 -400
    U_0_1 PMIN_0_1 -193.7393
    U_0_1 SU_0_1 -1
    U_0_1 SU_0_2 1
    U_0_1 RU_0_2 -237.7552
    U_0_1 RD_0_1 -237.7552
    U_0_1 MUT_0_1 -1
    U_0_1 MDT_0_1 1
    MARKER 'MARKER' 'INTEND'
    V_0_1 OBJ 28051.973
    V_0_1 SU_0_1 1
    V_0_1 RU_0_1 -193.7393
    V_0_1 MUT_0_1 1
    V_0_1 MUT_0_2 1
    V_0_1 MUT_0_3 1
    W_0_1 SU_0_1 -1
    W_0_1 RD_0_1 -400
    W_0_1 MDT_0_1 1
    W_0_1 MDT_0_2 1
    W_0_1 MDT_0_3 1
    P_0_1 OBJ 17.544812
    P_0_1 DEM_1 1
    P_0_1 PMAX_0_1 1
    P_0_1 PMIN_0_1 1
    P_0_1 RU_0_1 1
    P_0_1 RD_0_1 -1
    P_0_1 RU_0_2 -1
    P_0_1 RD_0_2 1
    MARKER 'MARKER' 'INTORG'
    U_1_1 OBJ 799.83128
    U_1_1 RES_1 200
    U_1_1 PMAX_1_1 -200
    U_1_1 PMIN_1_1 -42.144067
    U_1_1 SU_1_1 -1
    U_1_1 SU_1_2 1
    U_1_1 RU_1_2 -124.29356
    U_1_1 RD_1_1 -124.29356
    U_1_1 MUT_1_1 -1
    U_1_1 MDT_1_1 1
    MARKER 'MARKER' 'INTEND'
    V_1_1 OBJ 11661.656
    V_1_1 SU_1_1 1
    V_1_1 RU_1_1 -42.144067
    V_1_1 MUT_1_1 1
    V_1_1 MUT_1_2 1
    V_1_1 MUT_1_3 1
    V_1_1 MUT_1_4 1
    V_1_1 MUT_1_5 1
    W_1_1 SU_1_1 -1
    W_1_1 RD_1_1 -200
    W_1_1 MDT_1_1 1
    W_1_1 MDT_1_2 1
    W_1_1 MDT_1_3 1
    P_1_1 OBJ 45.656078
    P_1_1 DEM_1 1
    P_1_1 PMAX_1_1 1
    P_1_1 PMIN_1_1 1
    P_1_1 RU_1_1 1
    P_1_1 RD_1_1 -1
    P_1_1 RU_1_2 -1
    P_1_1 RD_1_2 1
    MARKER 'MARKER' 'INTORG'
    U_2_1 OBJ 541.96484
    U_2_1 RES_1 150
    U_2_1 PMAX_2_1 -150
    U_2_1 PMIN_2_1 -52.593028
    U_2_1 SU_2_1 -1
    U_2_1 SU_2_2 1
    U_2_1 RU_2_2 -100.91079
    U_2_1 RD_2_1 -100.91079
    U_2_1 MUT_2_1 -1
    U_2_1 MDT_2_1 1
    MARKER 'MARKER' 'INTEND'
    V_2_1 OBJ 6276.1299
    V_2_1 SU_2_1 1
    V_2_1 RU_2_1 -52.593028
    V_2_1 MUT_2_1 1
    V_2_1 MUT_2_2 1
    V_2_1 MUT_2_3 1
    V_2_1 MUT_2_4 1
    W_2_1 SU_2_1 -1
    W_2_1 RD_2_1 -150
    W_2_1 MDT_2_1 1
    W_2_1 MDT_2_2 1
    W_2_1 MDT_2_3 1
    W_2_1 MDT_2_4 1
    P_2_1 OBJ 55.554351
    P_2_1 DEM_1 1
    P_2_1 PMAX_2_1 1
    P_2_1 PMIN_2_1 1
    P_2_1 RU_2_1 1
    P_2_1 RD_2_1 -1
    P_2_1 RU_2_2 -1
    P_2_1 RD_2_2 1
    MARKER 'MARKER' 'INTORG'
    U_3_1 OBJ 338.3616
    U_3_1 RES_1 200
    U_3_1 PMAX_3_1 -200
    U_3_1 PMIN_3_1 -49.869305
    U_3_1 SU_3_1 -1
    U_3_1 SU_3_2 1
    U_3_1 RU_3_2 -73.8871
    U_3_1 RD_3_1 -73.8871
    U_3_1 MUT_3_1 -1
    U_3_1 MDT_3_1 1
    MARKER 'MARKER' 'INTEND'
    V_3_1 OBJ 6120.6398
    V_3_1 SU_3_1 1
    V_3_1 RU_3_1 -49.869305
    V_3_1 MUT_3_1 1
    V_3_1 MUT_3_2 1
    V_3_1 MUT_3_3 1
    V_3_1 MUT_3_4 1
    V_3_1 MUT_3_5 1
    W_3_1 SU_3_1 -1
    W_3_1 RD_3_1 -200
    W_3_1 MDT_3_1 1
    W_3_1 MDT_3_2 1
    W_3_1 MDT_3_3 1
    P_3_1 OBJ 22.98464
    P_3_1 DEM_1 1
    P_3_1 PMAX_3_1 1
    P_3_1 PMIN_3_1 1
    P_3_1 RU_3_1 1
    P_3_1 RD_3_1 -1
    P_3_1 RU_3_2 -1
    P_3_1 RD_3_2 1
    MARKER 'MARKER' 'INTORG'
    U_4_1 OBJ 701.07385
    U_4_1 RES_1 300
    U_4_1 PMAX_4_1 -300
    U_4_1 PMIN_4_1 -110.39013
    U_4_1 SU_4_1 -1
    U_4_1 SU_4_2 1
    U_4_1 RU_4_2 -153.04389
    U_4_1 RD_4_1 -153.04389
    U_4_1 MUT_4_1 -1
    U_4_1 MDT_4_1 1
    MARKER 'MARKER' 'INTEND'
    V_4_1 OBJ 13464.078
    V_4_1 SU_4_1 1
    V_4_1 RU_4_1 -110.39013
    V_4_1 MUT_4_1 1
    V_4_1 MUT_4_2 1
    V_4_1 MUT_4_3 1
    W_4_1 SU_4_1 -1
    W_4_1 RD_4_1 -300
    W_4_1 MDT_4_1 1
    W_4_1 MDT_4_2 1
    W_4_1 MDT_4_3 1
    P_4_1 OBJ 59.782995
    P_4_1 DEM_1 1
    P_4_1 PMAX_4_1 1
    P_4_1 PMIN_4_1 1
    P_4_1 RU_4_1 1
    P_4_1 RD_4_1 -1
    P_4_1 RU_4_2 -1
    P_4_1 RD_4_2 1
    MARKER 'MARKER' 'INTORG'
    U_5_1 OBJ 1304.8049
    U_5_1 RES_1 400
    U_5_1 PMAX_5_1 -400
    U_5_1 PMIN_5_1 -195.42811
    U_5_1 SU_5_1 -1
    U_5_1 SU_5_2 1
    U_5_1 RU_5_2 -193.82507
    U_5_1 RD_5_1 -193.82507
    U_5_1 MUT_5_1 -1
    U_5_1 MDT_5_1 1
    MARKER 'MARKER' 'INTEND'
    V_5_1 OBJ 25163.622
    V_5_1 SU_5_1 1
    V_5_1 RU_5_1 -195.42811
    V_5_1 MUT_5_1 1
    V_5_1 MUT_5_2 1
    V_5_1 MUT_5_3 1
    V_5_1 MUT_5_4 1
    V_5_1 MUT_5_5 1
    W_5_1 SU_5_1 -1
    W_5_1 RD_5_1 -400
    W_5_1 MDT_5_1 1
    W_5_1 MDT_5_2 1
    P_5_1 OBJ 22.253309
    P_5_1 DEM_1 1
    P_5_1 PMAX_5_1 1
    P_5_1 PMIN_5_1 1
    P_5_1 RU_5_1 1
    P_5_1 RD_5_1 -1
    P_5_1 RU_5_2 -1
    P_5_1 RD_5_2 1
    MARKER 'MARKER' 'INTORG'
    U_6_1 OBJ 309.26589
    U_6_1 RES_1 150
    U_6_1 PMAX_6_1 -150
    U_6_1 PMIN_6_1 -52.537848
    U_6_1 SU_6_1 -1
    U_6_1 SU_6_2 1
    U_6_1 RU_6_2 -98.982035
    U_6_1 RD_6_1 -98.982035
    U_6_1 MUT_6_1 -1
    U_6_1 MDT_6_1 1
    MARKER 'MARKER' 'INTEND'
    V_6_1 OBJ 10945.658
    V_6_1 SU_6_1 1
    V_6_1 RU_6_1 -52.537848
    V_6_1 MUT_6_1 1
    V_6_1 MUT_6_2 1
    V_6_1 MUT_6_3 1
    V_6_1 MUT_6_4 1
    W_6_1 SU_6_1 -1
    W_6_1 RD_6_1 -150
    W_6_1 MDT_6_1 1
    W_6_1 MDT_6_2 1
    W_6_1 MDT_6_3 1
    P_6_1 OBJ 52.418602
    P_6_1 DEM_1 1
    P_6_1 PMAX_6_1 1
    P_6_1 PMIN_6_1 1
    P_6_1 RU_6_1 1
    P_6_1 RD_6_1 -1
    P_6_1 RU_6_2 -1
    P_6_1 RD_6_2 1
    MARKER 'MARKER' 'INTORG'
    U_7_1 OBJ 333.08661
    U_7_1 RES_1 200
    U_7_1 PMAX_7_1 -200
    U_7_1 PMIN_7_1 -83.426377
    U_7_1 SU_7_1 -1
    U_7_1 SU_7_2 1
    U_7_1 RU_7_2 -115.96573
    U_7_1 RD_7_1 -115.96573
    U_7_1 MUT_7_1 -1
    U_7_1 MDT_7_1 1
    MARKER 'MARKER' 'INTEND'
    V_7_1 OBJ 7896.0069
    V_7_1 SU_7_1 1
    V_7_1 RU_7_1 -83.426377
    V_7_1 MUT_7_1 1
    V_7_1 MUT_7_2 1
    W_7_1 SU_7_1 -1
    W_7_1 RD_7_1 -200
    W_7_1 MDT_7_1 1
    W_7_1 MDT_7_2 1
    W_7_1 MDT_7_3 1
    P_7_1 OBJ 36.897385
    P_7_1 DEM_1 1
    P_7_1 PMAX_7_1 1
    P_7_1 PMIN_7_1 1
    P_7_1 RU_7_1 1
    P_7_1 RD_7_1 -1
    P_7_1 RU_7_2 -1
    P_7_1 RD_7_2 1
    MARKER 'MARKER' 'INTORG'
    U_8_1 OBJ 467.79261
    U_8_1 RES_1 150
    U_8_1 PMAX_8_1 -150
    U_8_1 PMIN_8_1 -43.930341
    U_8_1 SU_8_1 -1
    U_8_1 SU_8_2 1
    U_8_1 RU_8_2 -76.064865
    U_8_1 RD_8_1 -76.064865
    U_8_1 MUT_8_1 -1
    U_8_1 MDT_8_1 1
    MARKER 'MARKER' 'INTEND'
    V_8_1 OBJ 7538.2394
    V_8_1 SU_8_1 1
    V_8_1 RU_8_1 -43.930341
    V_8_1 MUT_8_1 1
    V_8_1 MUT_8_2 1
    V_8_1 MUT_8_3 1
    V_8_1 MUT_8_4 1
    V_8_1 MUT_8_5 1
    W_8_1 SU_8_1 -1
    W_8_1 RD_8_1 -150
    W_8_1 MDT_8_1 1
    W_8_1 MDT_8_2 1
    W_8_1 MDT_8_3 1
    W_8_1 MDT_8_4 1
    P_8_1 OBJ 58.081277
    P_8_1 DEM_1 1
    P_8_1 PMAX_8_1 1
    P_8_1 PMIN_8_1 1
    P_8_1 RU_8_1 1
    P_8_1 RD_8_1 -1
    P_8_1 RU_8_2 -1
    P_8_1 RD_8_2 1
    MARKER 'MARKER' 'INTORG'
    U_9_1 OBJ 244.21564
    U_9_1 RES_1 80
    U_9_1 PMAX_9_1 -80
    U_9_1 PMIN_9_1 -27.733755
    U_9_1 SU_9_1 -1
    U_9_1 SU_9_2 1
    U_9_1 RU_9_2 -49.096955
    U_9_1 RD_9_1 -49.096955
    U_9_1 MUT_9_1 -1
    U_9_1 MDT_9_1 1
    MARKER 'MARKER' 'INTEND'
    V_9_1 OBJ 5833.9338
    V_9_1 SU_9_1 1
    V_9_1 RU_9_1 -27.733755
    V_9_1 MUT_9_1 1
    V_9_1 MUT_9_2 1
    V_9_1 MUT_9_3 1
    W_9_1 SU_9_1 -1
    W_9_1 RD_9_1 -80
    W_9_1 MDT_9_1 1
    P_9_1 OBJ 40.945998
    P_9_1 DEM_1 1
    P_9_1 PMAX_9_1 1
    P_9_1 PMIN_9_1 1
    P_9_1 RU_9_1 1
    P_9_1 RD_9_1 -1
    P_9_1 RU_9_2 -1
    P_9_1 RD_9_2 1
    MARKER 'MARKER' 'INTORG'
    U_10_1 OBJ 217.85959
    U_10_1 RES_1 80
    U_10_1 PMAX_10_1 -80
    U_10_1 PMIN_10_1 -39.929646
    U_10_1 SU_10_1 -1
    U_10_1 SU_10_2 1
    U_10_1 RU_10_2 -42.93441
    U_10_1 RD_10_1 -42.93441
    U_10_1 MUT_10_1 -1
    U_10_1 MDT_10_1 1
    MARKER 'MARKER' 'INTEND'
    V_10_1 OBJ 1834.7686
    V_10_1 SU_10_1 1
    V_10_1 RU_10_1 -39.929646
    V_10_1 MUT_10_1 1
    W_10_1 SU_10_1 -1
    W_10_1 RD_10_1 -80
    W_10_1 MDT_10_1 1
    W_10_1 MDT_10_2 1
    P_10_1 OBJ 25.71018
    P_10_1 DEM_1 1
    P_10_1 PMAX_10_1 1
    P_10_1 PMIN_10_1 1
    P_10_1 RU_10_1 1
    P_10_1 RD_10_1 -1
    P_10_1 RU_10_2 -1
    P_10_1 RD_10_2 1
    MARKER 'MARKER' 'INTORG'
    U_11_1 OBJ 94.492357
    U_11_1 RES_1 80
    U_11_1 PMAX_11_1 -80
    U_11_1 PMIN_11_1 -35.79394
    U_11_1 SU_11_1 -1
    U_11_1 SU_11_2 1
    U_11_1 RU_11_2 -48.30109
    U_11_1 RD_11_1 -48.30109
    U_11_1 MUT_11_1 -1
    U_11_1 MDT_11_1 1
    MARKER 'MARKER' 'INTEND'
    V_11_1 OBJ 5910.2458
    V_11_1 SU_11_1 1
    V_11_1 RU_11_1 -35.79394
    V_11_1 MUT_11_1 1
    W_11_1 SU_11_1 -1
    W_11_1 RD_11_1 -80
    W_11_1 MDT_11_1 1
    W_11_1 MDT_11_2 1
    W_11_1 MDT_11_3 1
    P_11_1 OBJ 74.699486
    P_11_1 DEM_1 1
    P_11_1 PMAX_11_1 1
    P_11_1 PMIN_11_1 1
    P_11_1 RU_11_1 1
    P_11_1 RD_11_1 -1
    P_11_1 RU_11_2 -1
    P_11_1 RD_11_2 1
    SHED_1 OBJ 1000
    SHED_1 DEM_1 1
    SHED_1 RES_1 1.1
    MARKER 'MARKER' 'INTORG'
    U_0_2 OBJ 501.84639
    U_0_2 RES_2 400
    U_0_2 PMAX_0_2 -400
    U_0_2 PMIN_0_2 -193.7393
    U_0_2 SU_0_2 -1
    U_0_2 SU_0_3 1
    U_0_2 RU_0_3 -237.7552
    U_0_2 RD_0_2 -237.7552
    U_0_2 MUT_0_2 -1
    U_0_2 MDT_0_2 1
    MARKER 'MARKER' 'INTEND'
    V_0_2 OBJ 28051.973
    V_0_2 SU_0_2 1
    V_0_2 RU_0_2 -193.7393
    V_0_2 MUT_0_2 1
    V_0_2 MUT_0_3 1
    V_0_2 MUT_0_4 1
    W_0_2 SU_0_2 -1
    W_0_2 RD_0_2 -400
    W_0_2 MDT_0_2 1
    W_0_2 MDT_0_3 1
    W_0_2 MDT_0_4 1
    P_0_2 OBJ 17.544812
    P_0_2 DEM_2 1
    P_0_2 PMAX_0_2 1
    P_0_2 PMIN_0_2 1
    P_0_2 RU_0_2 1
    P_0_2 RD_0_2 -1
    P_0_2 RU_0_3 -1
    P_0_2 RD_0_3 1
    MARKER 'MARKER' 'INTORG'
    U_1_2 OBJ 799.83128
    U_1_2 RES_2 200
    U_1_2 PMAX_1_2 -200
    U_1_2 PMIN_1_2 -42.144067
    U_1_2 SU_1_2 -1
    U_1_2 SU_1_3 1
    U_1_2 RU_1_3 -124.29356
    U_1_2 RD_1_2 -124.29356
    U_1_2 MUT_1_2 -1
    U_1_2 MDT_1_2 1
    MARKER 'MARKER' 'INTEND'
    V_1_2 OBJ 11661.656
    V_1_2 SU_1_2 1
    V_1_2 RU_1_2 -42.144067
    V_1_2 MUT_1_2 1
    V_1_2 MUT_1_3 1
    V_1_2 MUT_1_4 1
    V_1_2 MUT_1_5 1
    V_1_2 MUT_1_6 1
    W_1_2 SU_1_2 -1
    W_1_2 RD_1_2 -200
    W_1_2 MDT_1_2 1
    W_1_2 MDT_1_3 1
    W_1_2 MDT_1_4 1
    P_1_2 OBJ 45.656078
    P_1_2 DEM_2 1
    P_1_2 PMAX_1_2 1
    P_1_2 PMIN_1_2 1
    P_1_2 RU_1_2 1
    P_1_2 RD_1_2 -1
    P_1_2 RU_1_3 -1
    P_1_2 RD_1_3 1
    MARKER 'MARKER' 'INTORG'
    U_2_2 OBJ 541.96484
    U_2_2 RES_2 150
    U_2_2 PMAX_2_2 -150
    U_2_2 PMIN_2_2 -52.593028
    U_2_2 SU_2_2 -1
    U_2_2 SU_2_3 1
    U_2_2 RU_2_3 -100.91079
    U_2_2 RD_2_2 -100.91079
    U_2_2 MUT_2_2 -1
    U_2_2 MDT_2_2 1
    MARKER 'MARKER' 'INTEND'
    V_2_2 OBJ 6276.1299
    V_2_2 SU_2_2 1
    V_2_2 RU_2_2 -52.593028
    V_2_2 MUT_2_2 1
    V_2_2 MUT_2_3 1
    V_2_2 MUT_2_4 1
    V_2_2 MUT_2_5 1
    W_2_2 SU_2_2 -1
    W_2_2 RD_2_2 -150
    W_2_2 MDT_2_2 1
    W_2_2 MDT_2_3 1
    W_2_2 MDT_2_4 1
    W_2_2 MDT_2_5 1
    P_2_2 OBJ 55.554351
    P_2_2 DEM_2 1
    P_2_2 PMAX_2_2 1
    P_2_2 PMIN_2_2 1
    P_2_2 RU_2_2 1
    P_2_2 RD_2_2 -1
    P_2_2 RU_2_3 -1
    P_2_2 RD_2_3 1
    MARKER 'MARKER' 'INTORG'
    U_3_2 OBJ 338.3616
    U_3_2 RES_2 200
    U_3_2 PMAX_3_2 -200
    U_3_2 PMIN_3_2 -49.869305
    U_3_2 SU_3_2 -1
    U_3_2 SU_3_3 1
    U_3_2 RU_3_3 -73.8871
    U_3_2 RD_3_2 -73.8871
    U_3_2 MUT_3_2 -1
    U_3_2 MDT_3_2 1
    MARKER 'MARKER' 'INTEND'
    V_3_2 OBJ 6120.6398
    V_3_2 SU_3_2 1
    V_3_2 RU_3_2 -49.869305
    V_3_2 MUT_3_2 1
    V_3_2 MUT_3_3 1
    V_3_2 MUT_3_4 1
    V_3_2 MUT_3_5 1
    V_3_2 MUT_3_6 1
    W_3_2 SU_3_2 -1
    W_3_2 RD_3_2 -200
    W_3_2 MDT_3_2 1
    W_3_2 MDT_3_3 1
    W_3_2 MDT_3_4 1
    P_3_2 OBJ 22.98464
    P_3_2 DEM_2 1
    P_3_2 PMAX_3_2 1
    P_3_2 PMIN_3_2 1
    P_3_2 RU_3_2 1
    P_3_2 RD_3_2 -1
    P_3_2 RU_3_3 -1
    P_3_2 RD_3_3 1
    MARKER 'MARKER' 'INTORG'
    U_4_2 OBJ 701.07385
    U_4_2 RES_2 300
    U_4_2 PMAX_4_2 -300
    U_4_2 PMIN_4_2 -110.39013
    U_4_2 SU_4_2 -1
    U_4_2 SU_4_3 1
    U_4_2 RU_4_3 -153.04389
    U_4_2 RD_4_2 -153.04389
    U_4_2 MUT_4_2 -1
    U_4_2 MDT_4_2 1
    MARKER 'MARKER' 'INTEND'
    V_4_2 OBJ 13464.078
    V_4_2 SU_4_2 1
    V_4_2 RU_4_2 -110.39013
    V_4_2 MUT_4_2 1
    V_4_2 MUT_4_3 1
    V_4_2 MUT_4_4 1
    W_4_2 SU_4_2 -1
    W_4_2 RD_4_2 -300
    W_4_2 MDT_4_2 1
    W_4_2 MDT_4_3 1
    W_4_2 MDT_4_4 1
    P_4_2 OBJ 59.782995
    P_4_2 DEM_2 1
    P_4_2 PMAX_4_2 1
    P_4_2 PMIN_4_2 1
    P_4_2 RU_4_2 1
    P_4_2 RD_4_2 -1
    P_4_2 RU_4_3 -1
    P_4_2 RD_4_3 1
    MARKER 'MARKER' 'INTORG'
    U_5_2 OBJ 1304.8049
    U_5_2 RES_2 400
    U_5_2 PMAX_5_2 -400
    U_5_2 PMIN_5_2 -195.42811
    U_5_2 SU_5_2 -1
    U_5_2 SU_5_3 1
    U_5_2 RU_5_3 -193.82507
    U_5_2 RD_5_2 -193.82507
    U_5_2 MUT_5_2 -1
    U_5_2 MDT_5_2 1
    MARKER 'MARKER' 'INTEND'
    V_5_2 OBJ 25163.622
    V_5_2 SU_5_2 1
    V_5_2 RU_5_2 -195.42811
    V_5_2 MUT_5_2 1
    V_5_2 MUT_5_3 1
    V_5_2 MUT_5_4 1
    V_5_2 MUT_5_5 1
    V_5_2 MUT_5_6 1
    W_5_2 SU_5_2 -1
    W_5_2 RD_5_2 -400
    W_5_2 MDT_5_2 1
    W_5_2 MDT_5_3 1
    P_5_2 OBJ 22.253309
    P_5_2 DEM_2 1
    P_5_2 PMAX_5_2 1
    P_5_2 PMIN_5_2 1
    P_5_2 RU_5_2 1
    P_5_2 RD_5_2 -1
    P_5_2 RU_5_3 -1
    P_5_2 RD_5_3 1
    MARKER 'MARKER' 'INTORG'
    U_6_2 OBJ 309.26589
    U_6_2 RES_2 150
    U_6_2 PMAX_6_2 -150
    U_6_2 PMIN_6_2 -52.537848
    U_6_2 SU_6_2 -1
    U_6_2 SU_6_3 1
    U_6_2 RU_6_3 -98.982035
    U_6_2 RD_6_2 -98.982035
    U_6_2 MUT_6_2 -1
    U_6_2 MDT_6_2 1
    MARKER 'MARKER' 'INTEND'
    V_6_2 OBJ 10945.658
    V_6_2 SU_6_2 1
    V_6_2 RU_6_2 -52.537848
    V_6_2 MUT_6_2 1
    V_6_2 MUT_6_3 1
    V_6_2 MUT_6_4 1
    V_6_2 MUT_6_5 1
    W_6_2 SU_6_2 -1
    W_6_2 RD_6_2 -150
    W_6_2 MDT_6_2 1
    W_6_2 MDT_6_3 1
    W_6_2 MDT_6_4 1
    P_6_2 OBJ 52.418602
    P_6_2 DEM_2 1
    P_6_2 PMAX_6_2 1
    P_6_2 PMIN_6_2 1
    P_6_2 RU_6_2 1
    P_6_2 RD_6_2 -1
    P_6_2 RU_6_3 -1
    P_6_2 RD_6_3 1
    MARKER 'MARKER' 'INTORG'
    U_7_2 OBJ 333.08661
    U_7_2 RES_2 200
    U_7_2 PMAX_7_2 -200
    U_7_2 PMIN_7_2 -83.426377
    U_7_2 SU_7_2 -1
    U_7_2 SU_7_3 1
    U_7_2 RU_7_3 -115.96573
    U_7_2 RD_7_2 -115.96573
    U_7_2 MUT_7_2 -1
    U_7_2 MDT_7_2 1
    MARKER 'MARKER' 'INTEND'
    V_7_2 OBJ 7896.0069
    V_7_2 SU_7_2 1
    V_7_2 RU_7_2 -83.426377
    V_7_2 MUT_7_2 1
    V_7_2 MUT_7_3 1
    W_7_2 SU_7_2 -1
    W_7_2 RD_7_2 -200
    W_7_2 MDT_7_2 1
    W_7_2 MDT_7_3 1
    W_7_2 MDT_7_4 1
    P_7_2 OBJ 36.897385
    P_7_2 DEM_2 1
    P_7_2 PMAX_7_2 1
    P_7_2 PMIN_7_2 1
    P_7_2 RU_7_2 1
    P_7_2 RD_7_2 -1
    P_7_2 RU_7_3 -1
    P_7_2 RD_7_3 1
    MARKER 'MARKER' 'INTORG'
    U_8_2 OBJ 467.79261
    U_8_2 RES_2 150
    U_8_2 PMAX_8_2 -150
    U_8_2 PMIN_8_2 -43.930341
    U_8_2 SU_8_2 -1
    U_8_2 SU_8_3 1
    U_8_2 RU_8_3 -76.064865
    U_8_2 RD_8_2 -76.064865
    U_8_2 MUT_8_2 -1
    U_8_2 MDT_8_2 1
    MARKER 'MARKER' 'INTEND'
    V_8_2 OBJ 7538.2394
    V_8_2 SU_8_2 1
    V_8_2 RU_8_2 -43.930341
    V_8_2 MUT_8_2 1
    V_8_2 MUT_8_3 1
    V_8_2 MUT_8_4 1
    V_8_2 MUT_8_5 1
    V_8_2 MUT_8_6 1
    W_8_2 SU_8_2 -1
    W_8_2 RD_8_2 -150
    W_8_2 MDT_8_2 1
    W_8_2 MDT_8_3 1
    W_8_2 MDT_8_4 1
    W_8_2 MDT_8_5 1
    P_8_2 OBJ 58.081277
    P_8_2 DEM_2 1
    P_8_2 PMAX_8_2 1
    P_8_2 PMIN_8_2 1
    P_8_2 RU_8_2 1
    P_8_2 RD_8_2 -1
    P_8_2 RU_8_3 -1
    P_8_2 RD_8_3 1
    MARKER 'MARKER' 'INTORG'
    U_9_2 OBJ 244.21564
    U_9_2 RES_2 80
    U_9_2 PMAX_9_2 -80
    U_9_2 PMIN_9_2 -27.733755
    U_9_2 SU_9_2 -1
    U_9_2 SU_9_3 1
    U_9_2 RU_9_3 -49.096955
    U_9_2 RD_9_2 -49.096955
    U_9_2 MUT_9_2 -1
    U_9_2 MDT_9_2 1
    MARKER 'MARKER' 'INTEND'
    V_9_2 OBJ 5833.9338
    V_9_2 SU_9_2 1
    V_9_2 RU_9_2 -27.733755
    V_9_2 MUT_9_2 1
    V_9_2 MUT_9_3 1
    V_9_2 MUT_9_4 1
    W_9_2 SU_9_2 -1
    W_9_2 RD_9_2 -80
    W_9_2 MDT_9_2 1
    P_9_2 OBJ 40.945998
    P_9_2 DEM_2 1
    P_9_2 PMAX_9_2 1
    P_9_2 PMIN_9_2 1
    P_9_2 RU_9_2 1
    P_9_2 RD_9_2 -1
    P_9_2 RU_9_3 -1
    P_9_2 RD_9_3 1
    MARKER 'MARKER' 'INTORG'
    U_10_2 OBJ 217.85959
    U_10_2 RES_2 80
    U_10_2 PMAX_10_2 -80
    U_10_2 PMIN_10_2 -39.929646
    U_10_2 SU_10_2 -1
    U_10_2 SU_10_3 1
    U_10_2 RU_10_3 -42.93441
    U_10_2 RD_10_2 -42.93441
    U_10_2 MUT_10_2 -1
    U_10_2 MDT_10_2 1
    MARKER 'MARKER' 'INTEND'
    V_10_2 OBJ 1834.7686
    V_10_2 SU_10_2 1
    V_10_2 RU_10_2 -39.929646
    V_10_2 MUT_10_2 1
    W_10_2 SU_10_2 -1
    W_10_2 RD_10_2 -80
    W_10_2 MDT_10_2 1
    W_10_2 MDT_10_3 1
    P_10_2 OBJ 25.71018
    P_10_2 DEM_2 1
    P_10_2 PMAX_10_2 1
    P_10_2 PMIN_10_2 1
    P_10_2 RU_10_2 1
    P_10_2 RD_10_2 -1
    P_10_2 RU_10_3 -1
    P_10_2 RD_10_3 1
    MARKER 'MARKER' 'INTORG'
    U_11_2 OBJ 94.492357
    U_11_2 RES_2 80
    U_11_2 PMAX_11_2 -80
    U_11_2 PMIN_11_2 -35.79394
    U_11_2 SU_11_2 -1
    U_11_2 SU_11_3 1
    U_11_2 RU_11_3 -48.30109
    U_11_2 RD_11_2 -48.30109
    U_11_2 MUT_11_2 -1
    U_11_2 MDT_11_2 1
    MARKER 'MARKER' 'INTEND'
    V_11_2 OBJ 5910.2458
    V_11_2 SU_11_2 1
    V_11_2 RU_11_2 -35.79394
    V_11_2 MUT_11_2 1
    W_11_2 SU_11_2 -1
    W_11_2 RD_11_2 -80
    W_11_2 MDT_11_2 1
    W_11_2 MDT_11_3 1
    W_11_2 MDT_11_4 1
    P_11_2 OBJ 74.699486
    P_11_2 DEM_2 1
    P_11_2 PMAX_11_2 1
    P_11_2 PMIN_11_2 1
    P_11_2 RU_11_2 1
    P_11_2 RD_11_2 -1
    P_11_2 RU_11_3 -1
    P_11_2 RD_11_3 1
    SHED_2 OBJ 1000
    SHED_2 DEM_2 1
    SHED_2 RES_2 1.1
    MARKER 'MARKER' 'INTORG'
    U_0_3 OBJ 501.84639
    U_0_3 RES_3 400
    U_0_3 PMAX_0_3 -400
    U_0_3 PMIN_0_3 -193.7393
    U_0_3 SU_0_3 -1
    U_0_3 SU_0_4 1
    U_0_3 RU_0_4 -237.7552
    U_0_3 RD_0_3 -237.7552
    U_0_3 MUT_0_3 -1
    U_0_3 MDT_0_3 1
    MARKER 'MARKER' 'INTEND'
    V_0_3 OBJ 28051.973
    V_0_3 SU_0_3 1
    V_0_3 RU_0_3 -193.7393
    V_0_3 MUT_0_3 1
    V_0_3 MUT_0_4 1
    V_0_3 MUT_0_5 1
    W_0_3 SU_0_3 -1
    W_0_3 RD_0_3 -400
    W_0_3 MDT_0_3 1
    W_0_3 MDT_0_4 1
    W_0_3 MDT_0_5 1
    P_0_3 OBJ 17.544812
    P_0_3 DEM_3 1
    P_0_3 PMAX_0_3 1
    P_0_3 PMIN_0_3 1
    P_0_3 RU_0_3 1
    P_0_3 RD_0_3 -1
    P_0_3 RU_0_4 -1
    P_0_3 RD_0_4 1
    MARKER 'MARKER' 'INTORG'
    U_1_3 OBJ 799.83128
    U_1_3 RES_3 200
    U_1_3 PMAX_1_3 -200
    U_1_3 PMIN_1_3 -42.144067
    U_1_3 SU_1_3 -1
    U_1_3 SU_1_4 1
    U_1_3 RU_1_4 -124.29356
    U_1_3 RD_1_3 -124.29356
    U_1_3 MUT_1_3 -1
    U_1_3 MDT_1_3 1
    MARKER 'MARKER' 'INTEND'
    V_1_3 OBJ 11661.656
    V_1_3 SU_1_3 1
    V_1_3 RU_1_3 -42.144067
    V_1_3 MUT_1_3 1
    V_1_3 MUT_1_4 1
    V_1_3 MUT_1_5 1
    V_1_3 MUT_1_6 1
    V_1_3 MUT_1_7 1
    W_1_3 SU_1_3 -1
    W_1_3 RD_1_3 -200
    W_1_3 MDT_1_3 1
    W_1_3 MDT_1_4 1
    W_1_3 MDT_1_5 1
    P_1_3 OBJ 45.656078
    P_1_3 DEM_3 1
    P_1_3 PMAX_1_3 1
    P_1_3 PMIN_1_3 1
    P_1_3 RU_1_3 1
    P_1_3 RD_1_3 -1
    P_1_3 RU_1_4 -1
    P_1_3 RD_1_4 1
    MARKER 'MARKER' 'INTORG'
    U_2_3 OBJ 541.96484
    U_2_3 RES_3 150
    U_2_3 PMAX_2_3 -150
    U_2_3 PMIN_2_3 -52.593028
    U_2_3 SU_2_3 -1
    U_2_3 SU_2_4 1
    U_2_3 RU_2_4 -100.91079
    U_2_3 RD_2_3 -100.91079
    U_2_3 MUT_2_3 -1
    U_2_3 MDT_2_3 1
    MARKER 'MARKER' 'INTEND'
    V_2_3 OBJ 6276.1299
    V_2_3 SU_2_3 1
    V_2_3 RU_2_3 -52.593028
    V_2_3 MUT_2_3 1
    V_2_3 MUT_2_4 1
    V_2_3 MUT_2_5 1
    V_2_3 MUT_2_6 1
    W_2_3 SU_2_3 -1
    W_2_3 RD_2_3 -150
    W_2_3 MDT_2_3 1
    W_2_3 MDT_2_4 1
    W_2_3 MDT_2_5 1
    W_2_3 MDT_2_6 1
    P_2_3 OBJ 55.554351
    P_2_3 DEM_3 1
    P_2_3 PMAX_2_3 1
    P_2_3 PMIN_2_3 1
    P_2_3 RU_2_3 1
    P_2_3 RD_2_3 -1
    P_2_3 RU_2_4 -1
    P_2_3 RD_2_4 1
    MARKER 'MARKER' 'INTORG'
    U_3_3 OBJ 338.3616
    U_3_3 RES_3 200
    U_3_3 PMAX_3_3 -200
    U_3_3 PMIN_3_3 -49.869305
    U_3_3 SU_3_3 -1
    U_3_3 SU_3_4 1
    U_3_3 RU_3_4 -73.8871
    U_3_3 RD_3_3 -73.8871
    U_3_3 MUT_3_3 -1
    U_3_3 MDT_3_3 1
    MARKER 'MARKER' 'INTEND'
    V_3_3 OBJ 6120.6398
    V_3_3 SU_3_3 1
    V_3_3 RU_3_3 -49.869305
    V_3_3 MUT_3_3 1
    V_3_3 MUT_3_4 1
    V_3_3 MUT_3_5 1
    V_3_3 MUT_3_6 1
    V_3_3 MUT_3_7 1
    W_3_3 SU_3_3 -1
    W_3_3 RD_3_3 -200
    W_3_3 MDT_3_3 1
    W_3_3 MDT_3_4 1
    W_3_3 MDT_3_5 1
    P_3_3 OBJ 22.98464
    P_3_3 DEM_3 1
    P_3_3 PMAX_3_3 1
    P_3_3 PMIN_3_3 1
    P_3_3 RU_3_3 1
    P_3_3 RD_3_3 -1
    P_3_3 RU_3_4 -1
    P_3_3 RD_3_4 1
    MARKER 'MARKER' 'INTORG'
    U_4_3 OBJ 701.07385
    U_4_3 RES_3 300
    U_4_3 PMAX_4_3 -300
    U_4_3 PMIN_4_3 -110.39013
    U_4_3 SU_4_3 -1
    U_4_3 SU_4_4 1
    U_4_3 RU_4_4 -153.04389
    U_4_3 RD_4_3 -153.04389
    U_4_3 MUT_4_3 -1
    U_4_3 MDT_4_3 1
    MARKER 'MARKER' 'INTEND'
    V_4_3 OBJ 13464.078
    V_4_3 SU_4_3 1
    V_4_3 RU_4_3 -110.39013
    V_4_3 MUT_4_3 1
    V_4_3 MUT_4_4 1
    V_4_3 MUT_4_5 1
    W_4_3 SU_4_3 -1
    W_4_3 RD_4_3 -300
    W_4_3 MDT_4_3 1
    W_4_3 MDT_4_4 1
    W_4_3 MDT_4_5 1
    P_4_3 OBJ 59.782995
    P_4_3 DEM_3 1
    P_4_3 PMAX_4_3 1
    P_4_3 PMIN_4_3 1
    P_4_3 RU_4_3 1
    P_4_3 RD_4_3 -1
    P_4_3 RU_4_4 -1
    P_4_3 RD_4_4 1
    MARKER 'MARKER' 'INTORG'
    U_5_3 OBJ 1304.8049
    U_5_3 RES_3 400
    U_5_3 PMAX_5_3 -400
    U_5_3 PMIN_5_3 -195.42811
    U_5_3 SU_5_3 -1
    U_5_3 SU_5_4 1
    U_5_3 RU_5_4 -193.82507
    U_5_3 RD_5_3 -193.82507
    U_5_3 MUT_5_3 -1
    U_5_3 MDT_5_3 1
    MARKER 'MARKER' 'INTEND'
    V_5_3 OBJ 25163.622
    V_5_3 SU_5_3 1
    V_5_3 RU_5_3 -195.42811
    V_5_3 MUT_5_3 1
    V_5_3 MUT_5_4 1
    V_5_3 MUT_5_5 1
    V_5_3 MUT_5_6 1
    V_5_3 MUT_5_7 1
    W_5_3 SU_5_3 -1
    W_5_3 RD_5_3 -400
    W_5_3 MDT_5_3 1
    W_5_3 MDT_5_4 1
    P_5_3 OBJ 22.253309
    P_5_3 DEM_3 1
    P_5_3 PMAX_5_3 1
    P_5_3 PMIN_5_3 1
    P_5_3 RU_5_3 1
    P_5_3 RD_5_3 -1
    P_5_3 RU_5_4 -1
    P_5_3 RD_5_4 1
    MARKER 'MARKER' 'INTORG'
    U_6_3 OBJ 309.26589
    U_6_3 RES_3 150
    U_6_3 PMAX_6_3 -150
    U_6_3 PMIN_6_3 -52.537848
    U_6_3 SU_6_3 -1
    U_6_3 SU_6_4 1
    U_6_3 RU_6_4 -98.982035
    U_6_3 RD_6_3 -98.982035
    U_6_3 MUT_6_3 -1
    U_6_3 MDT_6_3 1
    MARKER 'MARKER' 'INTEND'
    V_6_3 OBJ 10945.658
    V_6_3 SU_6_3 1
    V_6_3 RU_6_3 -52.537848
    V_6_3 MUT_6_3 1
    V_6_3 MUT_6_4 1
    V_6_3 MUT_6_5 1
    V_6_3 MUT_6_6 1
    W_6_3 SU_6_3 -1
    W_6_3 RD_6_3 -150
    W_6_3 MDT_6_3 1
    W_6_3 MDT_6_4 1
    W_6_3 MDT_6_5 1
    P_6_3 OBJ 52.418602
    P_6_3 DEM_3 1
    P_6_3 PMAX_6_3 1
    P_6_3 PMIN_6_3 1
    P_6_3 RU_6_3 1
    P_6_3 RD_6_3 -1
    P_6_3 RU_6_4 -1
    P_6_3 RD_6_4 1
    MARKER 'MARKER' 'INTORG'
    U_7_3 OBJ 333.08661
    U_7_3 RES_3 200
    U_7_3 PMAX_7_3 -200
    U_7_3 PMIN_7_3 -83.426377
    U_7_3 SU_7_3 -1
    U_7_3 SU_7_4 1
    U_7_3 RU_7_4 -115.96573
    U_7_3 RD_7_3 -115.96573
    U_7_3 MUT_7_3 -1
    U_7_3 MDT_7_3 1
    MARKER 'MARKER' 'INTEND'
    V_7_3 OBJ 7896.0069
    V_7_3 SU_7_3 1
    V_7_3 RU_7_3 -83.426377
    V_7_3 MUT_7_3 1
    V_7_3 MUT_7_4 1
    W_7_3 SU_7_3 -1
    W_7_3 RD_7_3 -200
    W_7_3 MDT_7_3 1
    W_7_3 MDT_7_4 1
    W_7_3 MDT_7_5 1
    P_7_3 OBJ 36.897385
    P_7_3 DEM_3 1
    P_7_3 PMAX_7_3 1
    P_7_3 PMIN_7_3 1
    P_7_3 RU_7_3 1
    P_7_3 RD_7_3 -1
    P_7_3 RU_7_4 -1
    P_7_3 RD_7_4 1
    MARKER 'MARKER' 'INTORG'
    U_8_3 OBJ 467.79261
    U_8_3 RES_3 150
    U_8_3 PMAX_8_3 -150
    U_8_3 PMIN_8_3 -43.930341
    U_8_3 SU_8_3 -1
    U_8_3 SU_8_4 1
    U_8_3 RU_8_4 -76.064865
    U_8_3 RD_8_3 -76.064865
    U_8_3 MUT_8_3 -1
    U_8_3 MDT_8_3 1
    MARKER 'MARKER' 'INTEND'
    V_8_3 OBJ 7538.2394
    V_8_3 SU_8_3 1
    V_8_3 RU_8_3 -43.930341
    V_8_3 MUT_8_3 1
    V_8_3 MUT_8_4 1
    V_8_3 MUT_8_5 1
    V_8_3 MUT_8_6 1
    V_8_3 MUT_8_7 1
    W_8_3 SU_8_3 -1
    W_8_3 RD_8_3 -150
    W_8_3 MDT_8_3 1
    W_8_3 MDT_8_4 1
    W_8_3 MDT_8_5 1
    W_8_3 MDT_8_6 1
    P_8_3 OBJ 58.081277
    P_8_3 DEM_3 1
    P_8_3 PMAX_8_3 1
    P_8_3 PMIN_8_3 1
    P_8_3 RU_8_3 1
    P_8_3 RD_8_3 -1
    P_8_3 RU_8_4 -1
    P_8_3 RD_8_4 1
    MARKER 'MARKER' 'INTORG'
    U_9_3 OBJ 244.21564
    U_9_3 RES_3 80
    U_9_3 PMAX_9_3 -80
    U_9_3 PMIN_9_3 -27.733755
    U_9_3 SU_9_3 -1
    U_9_3 SU_9_4 1
    U_9_3 RU_9_4 -49.096955
    U_9_3 RD_9_3 -49.096955
    U_9_3 MUT_9_3 -1
    U_9_3 MDT_9_3 1
    MARKER 'MARKER' 'INTEND'
    V_9_3 OBJ 5833.9338
    V_9_3 SU_9_3 1
    V_9_3 RU_9_3 -27.733755
    V_9_3 MUT_9_3 1
    V_9_3 MUT_9_4 1
    V_9_3 MUT_9_5 1
    W_9_3 SU_9_3 -1
    W_9_3 RD_9_3 -80
    W_9_3 MDT_9_3 1
    P_9_3 OBJ 40.945998
    P_9_3 DEM_3 1
    P_9_3 PMAX_9_3 1
    P_9_3 PMIN_9_3 1
    P_9_3 RU_9_3 1
    P_9_3 RD_9_3 -1
    P_9_3 RU_9_4 -1
    P_9_3 RD_9_4 1
    MARKER 'MARKER' 'INTORG'
    U_10_3 OBJ 217.85959
    U_10_3 RES_3 80
    U_10_3 PMAX_10_3 -80
    U_10_3 PMIN_10_3 -39.929646
    U_10_3 SU_10_3 -1
    U_10_3 SU_10_4 1
    U_10_3 RU_10_4 -42.93441
    U_10_3 RD_10_3 -42.93441
    U_10_3 MUT_10_3 -1
    U_10_3 MDT_10_3 1
    MARKER 'MARKER' 'INTEND'
    V_10_3 OBJ 1834.7686
    V_10_3 SU_10_3 1
    V_10_3 RU_10_3 -39.929646
    V_10_3 MUT_10_3 1
    W_10_3 SU_10_3 -1
    W_10_3 RD_10_3 -80
    W_10_3 MDT_10_3 1
    W_10_3 MDT_10_4 1
    P_10_3 OBJ 25.71018
    P_10_3 DEM_3 1
    P_10_3 PMAX_10_3 1
    P_10_3 PMIN_10_3 1
    P_10_3 RU_10_3 1
    P_10_3 RD_10_3 -1
    P_10_3 RU_10_4 -1
    P_10_3 RD_10_4 1
    MARKER 'MARKER' 'INTORG'
    U_11_3 OBJ 94.492357
    U_11_3 RES_3 80
    U_11_3 PMAX_11_3 -80
    U_11_3 PMIN_11_3 -35.79394
    U_11_3 SU_11_3 -1
    U_11_3 SU_11_4 1
    U_11_3 RU_11_4 -48.30109
    U_11_3 RD_11_3 -48.30109
    U_11_3 MUT_11_3 -1
    U_11_3 MDT_11_3 1
    MARKER 'MARKER' 'INTEND'
    V_11_3 OBJ 5910.2458
    V_11_3 SU_11_3 1
    V_11_3 RU_11_3 -35.79394
    V_11_3 MUT_11_3 1
    W_11_3 SU_11_3 -1
    W_11_3 RD_11_3 -80
    W_11_3 MDT_11_3 1
    W_11_3 MDT_11_4 1
    W_11_3 MDT_11_5 1
    P_11_3 OBJ 74.699486
    P_11_3 DEM_3 1
    P_11_3 PMAX_11_3 1
    P_11_3 PMIN_11_3 1
    P_11_3 RU_11_3 1
    P_11_3 RD_11_3 -1
    P_11_3 RU_11_4 -1
    P_11_3 RD_11_4 1
    SHED_3 OBJ 1000
    SHED_3 DEM_3 1
    SHED_3 RES_3 1.1
    MARKER 'MARKER' 'INTORG'
    U_0_4 OBJ 501.84639
    U_0_4 RES_4 400
    U_0_4 PMAX_0_4 -400
    U_0_4 PMIN_0_4 -193.7393
    U_0_4 SU_0_4 -1
    U_0_4 SU_0_5 1
    U_0_4 RU_0_5 -237.7552
    U_0_4 RD_0_4 -237.7552
    U_0_4 MUT_0_4 -1
    U_0_4 MDT_0_4 1
    MARKER 'MARKER' 'INTEND'
    V_0_4 OBJ 28051.973
    V_0_4 SU_0_4 1
    V_0_4 RU_0_4 -193.7393
    V_0_4 MUT_0_4 1
    V_0_4 MUT_0_5 1
    V_0_4 MUT_0_6 1
    W_0_4 SU_0_4 -1
    W_0_4 RD_0_4 -400
    W_0_4 MDT_0_4 1
    W_0_4 MDT_0_5 1
    W_0_4 MDT_0_6 1
    P_0_4 OBJ 17.544812
    P_0_4 DEM_4 1
    P_0_4 PMAX_0_4 1
    P_0_4 PMIN_0_4 1
    P_0_4 RU_0_4 1
    P_0_4 RD_0_4 -1
    P_0_4 RU_0_5 -1
    P_0_4 RD_0_5 1
    MARKER 'MARKER' 'INTORG'
    U_1_4 OBJ 799.83128
    U_1_4 RES_4 200
    U_1_4 PMAX_1_4 -200
    U_1_4 PMIN_1_4 -42.144067
    U_1_4 SU_1_4 -1
    U_1_4 SU_1_5 1
    U_1_4 RU_1_5 -124.29356
    U_1_4 RD_1_4 -124.29356
    U_1_4 MUT_1_4 -1
    U_1_4 MDT_1_4 1
    MARKER 'MARKER' 'INTEND'
    V_1_4 OBJ 11661.656
    V_1_4 SU_1_4 1
    V_1_4 RU_1_4 -42.144067
    V_1_4 MUT_1_4 1
    V_1_4 MUT_1_5 1
    V_1_4 MUT_1_6 1
    V_1_4 MUT_1_7 1
    V_1_4 MUT_1_8 1
    W_1_4 SU_1_4 -1
    W_1_4 RD_1_4 -200
    W_1_4 MDT_1_4 1
    W_1_4 MDT_1_5 1
    W_1_4 MDT_1_6 1
    P_1_4 OBJ 45.656078
    P_1_4 DEM_4 1
    P_1_4 PMAX_1_4 1
    P_1_4 PMIN_1_4 1
    P_1_4 RU_1_4 1
    P_1_4 RD_1_4 -1
    P_1_4 RU_1_5 -1
    P_1_4 RD_1_5 1
    MARKER 'MARKER' 'INTORG'
    U_2_4 OBJ 541.96484
    U_2_4 RES_4 150
    U_2_4 PMAX_2_4 -150
    U_2_4 PMIN_2_4 -52.593028
    U_2_4 SU_2_4 -1
    U_2_4 SU_2_5 1
    U_2_4 RU_2_5 -100.91079
    U_2_4 RD_2_4 -100.91079
    U_2_4 MUT_2_4 -1
    U_2_4 MDT_2_4 1
    MARKER 'MARKER' 'INTEND'
    V_2_4 OBJ 6276.1299
    V_2_4 SU_2_4 1
    V_2_4 RU_2_4 -52.593028
    V_2_4 MUT_2_4 1
    V_2_4 MUT_2_5 1
    V_2_4 MUT_2_6 1
    V_2_4 MUT_2_7 1
    W_2_4 SU_2_4 -1
    W_2_4 RD_2_4 -150
    W_2_4 MDT_2_4 1
    W_2_4 MDT_2_5 1
    W_2_4 MDT_2_6 1
    W_2_4 MDT_2_7 1
    P_2_4 OBJ 55.554351
    P_2_4 DEM_4 1
    P_2_4 PMAX_2_4 1
    P_2_4 PMIN_2_4 1
    P_2_4 RU_2_4 1
    P_2_4 RD_2_4 -1
    P_2_4 RU_2_5 -1
    P_2_4 RD_2_5 1
    MARKER 'MARKER' 'INTORG'
    U_3_4 OBJ 338.3616
    U_3_4 RES_4 200
    U_3_4 PMAX_3_4 -200
    U_3_4 PMIN_3_4 -49.869305
    U_3_4 SU_3_4 -1
    U_3_4 SU_3_5 1
    U_3_4 RU_3_5 -73.8871
    U_3_4 RD_3_4 -73.8871
    U_3_4 MUT_3_4 -1
    U_3_4 MDT_3_4 1
    MARKER 'MARKER' 'INTEND'
    V_3_4 OBJ 6120.6398
    V_3_4 SU_3_4 1
    V_3_4 RU_3_4 -49.869305
    V_3_4 MUT_3_4 1
    V_3_4 MUT_3_5 1
    V_3_4 MUT_3_6 1
    V_3_4 MUT_3_7 1
    V_3_4 MUT_3_8 1
    W_3_4 SU_3_4 -1
    W_3_4 RD_3_4 -200
    W_3_4 MDT_3_4 1
    W_3_4 MDT_3_5 1
    W_3_4 MDT_3_6 1
    P_3_4 OBJ 22.98464
    P_3_4 DEM_4 1
    P_3_4 PMAX_3_4 1
    P_3_4 PMIN_3_4 1
    P_3_4 RU_3_4 1
    P_3_4 RD_3_4 -1
    P_3_4 RU_3_5 -1
    P_3_4 RD_3_5 1
    MARKER 'MARKER' 'INTORG'
    U_4_4 OBJ 701.07385
    U_4_4 RES_4 300
    U_4_4 PMAX_4_4 -300
    U_4_4 PMIN_4_4 -110.39013
    U_4_4 SU_4_4 -1
    U_4_4 SU_4_5 1
    U_4_4 RU_4_5 -153.04389
    U_4_4 RD_4_4 -153.04389
    U_4_4 MUT_4_4 -1
    U_4_4 MDT_4_4 1
    MARKER 'MARKER' 'INTEND'
    V_4_4 OBJ 13464.078
    V_4_4 SU_4_4 1
    V_4_4 RU_4_4 -110.39013
    V_4_4 MUT_4_4 1
    V_4_4 MUT_4_5 1
    V_4_4 MUT_4_6 1
    W_4_4 SU_4_4 -1
    W_4_4 RD_4_4 -300
    W_4_4 MDT_4_4 1
    W_4_4 MDT_4_5 1
    W_4_4 MDT_4_6 1
    P_4_4 OBJ 59.782995
    P_4_4 DEM_4 1
    P_4_4 PMAX_4_4 1
    P_4_4 PMIN_4_4 1
    P_4_4 RU_4_4 1
    P_4_4 RD_4_4 -1
    P_4_4 RU_4_5 -1
    P_4_4 RD_4_5 1
    MARKER 'MARKER' 'INTORG'
    U_5_4 OBJ 1304.8049
    U_5_4 RES_4 400
    U_5_4 PMAX_5_4 -400
    U_5_4 PMIN_5_4 -195.42811
    U_5_4 SU_5_4 -1
    U_5_4 SU_5_5 1
    U_5_4 RU_5_5 -193.82507
    U_5_4 RD_5_4 -193.82507
    U_5_4 MUT_5_4 -1
    U_5_4 MDT_5_4 1
    MARKER 'MARKER' 'INTEND'
    V_5_4 OBJ 25163.622
    V_5_4 SU_5_4 1
    V_5_4 RU_5_4 -195.42811
    V_5_4 MUT_5_4 1
    V_5_4 MUT_5_5 1
    V_5_4 MUT_5_6 1
    V_5_4 MUT_5_7 1
    V_5_4 MUT_5_8 1
    W_5_4 SU_5_4 -1
    W_5_4 RD_5_4 -400
    W_5_4 MDT_5_4 1
    W_5_4 MDT_5_5 1
    P_5_4 OBJ 22.253309
    P_5_4 DEM_4 1
    P_5_4 PMAX_5_4 1
    P_5_4 PMIN_5_4 1
    P_5_4 RU_5_4 1
    P_5_4 RD_5_4 -1
    P_5_4 RU_5_5 -1
    P_5_4 RD_5_5 1
    MARKER 'MARKER' 'INTORG'
    U_6_4 OBJ 309.26589
    U_6_4 RES_4 150
    U_6_4 PMAX_6_4 -150
    U_6_4 PMIN_6_4 -52.537848
    U_6_4 SU_6_4 -1
    U_6_4 SU_6_5 1
    U_6_4 RU_6_5 -98.982035
    U_6_4 RD_6_4 -98.982035
    U_6_4 MUT_6_4 -1
    U_6_4 MDT_6_4 1
    MARKER 'MARKER' 'INTEND'
    V_6_4 OBJ 10945.658
    V_6_4 SU_6_4 1
    V_6_4 RU_6_4 -52.537848
    V_6_4 MUT_6_4 1
    V_6_4 MUT_6_5 1
    V_6_4 MUT_6_6 1
    V_6_4 MUT_6_7 1
    W_6_4 SU_6_4 -1
    W_6_4 RD_6_4 -150
    W_6_4 MDT_6_4 1
    W_6_4 MDT_6_5 1
    W_6_4 MDT_6_6 1
    P_6_4 OBJ 52.418602
    P_6_4 DEM_4 1
    P_6_4 PMAX_6_4 1
    P_6_4 PMIN_6_4 1
    P_6_4 RU_6_4 1
    P_6_4 RD_6_4 -1
    P_6_4 RU_6_5 -1
    P_6_4 RD_6_5 1
    MARKER 'MARKER' 'INTORG'
    U_7_4 OBJ 333.08661
    U_7_4 RES_4 200
    U_7_4 PMAX_7_4 -200
    U_7_4 PMIN_7_4 -83.426377
    U_7_4 SU_7_4 -1
    U_7_4 SU_7_5 1
    U_7_4 RU_7_5 -115.96573
    U_7_4 RD_7_4 -115.96573
    U_7_4 MUT_7_4 -1
    U_7_4 MDT_7_4 1
    MARKER 'MARKER' 'INTEND'
    V_7_4 OBJ 7896.0069
    V_7_4 SU_7_4 1
    V_7_4 RU_7_4 -83.426377
    V_7_4 MUT_7_4 1
    V_7_4 MUT_7_5 1
    W_7_4 SU_7_4 -1
    W_7_4 RD_7_4 -200
    W_7_4 MDT_7_4 1
    W_7_4 MDT_7_5 1
    W_7_4 MDT_7_6 1
    P_7_4 OBJ 36.897385
    P_7_4 DEM_4 1
    P_7_4 PMAX_7_4 1
    P_7_4 PMIN_7_4 1
    P_7_4 RU_7_4 1
    P_7_4 RD_7_4 -1
    P_7_4 RU_7_5 -1
    P_7_4 RD_7_5 1
    MARKER 'MARKER' 'INTORG'
    U_8_4 OBJ 467.79261
    U_8_4 RES_4 150
    U_8_4 PMAX_8_4 -150
    U_8_4 PMIN_8_4 -43.930341
    U_8_4 SU_8_4 -1
    U_8_4 SU_8_5 1
    U_8_4 RU_8_5 -76.064865
    U_8_4 RD_8_4 -76.064865
    U_8_4 MUT_8_4 -1
    U_8_4 MDT_8_4 1
    MARKER 'MARKER' 'INTEND'
    V_8_4 OBJ 7538.2394
    V_8_4 SU_8_4 1
    V_8_4 RU_8_4 -43.930341
    V_8_4 MUT_8_4 1
    V_8_4 MUT_8_5 1
    V_8_4 MUT_8_6 1
    V_8_4 MUT_8_7 1
    V_8_4 MUT_8_8 1
    W_8_4 SU_8_4 -1
    W_8_4 RD_8_4 -150
    W_8_4 MDT_8_4 1
    W_8_4 MDT_8_5 1
    W_8_4 MDT_8_6 1
    W_8_4 MDT_8_7 1
    P_8_4 OBJ 58.081277
    P_8_4 DEM_4 1
    P_8_4 PMAX_8_4 1
    P_8_4 PMIN_8_4 1
    P_8_4 RU_8_4 1
    P_8_4 RD_8_4 -1
    P_8_4 RU_8_5 -1
    P_8_4 RD_8_5 1
    MARKER 'MARKER' 'INTORG'
    U_9_4 OBJ 244.21564
    U_9_4 RES_4 80
    U_9_4 PMAX_9_4 -80
    U_9_4 PMIN_9_4 -27.733755
    U_9_4 SU_9_4 -1
    U_9_4 SU_9_5 1
    U_9_4 RU_9_5 -49.096955
    U_9_4 RD_9_4 -49.096955
    U_9_4 MUT_9_4 -1
    U_9_4 MDT_9_4 1
    MARKER 'MARKER' 'INTEND'
    V_9_4 OBJ 5833.9338
    V_9_4 SU_9_4 1
    V_9_4 RU_9_4 -27.733755
    V_9_4 MUT_9_4 1
    V_9_4 MUT_9_5 1
    V_9_4 MUT_9_6 1
    W_9_4 SU_9_4 -1
    W_9_4 RD_9_4 -80
    W_9_4 MDT_9_4 1
    P_9_4 OBJ 40.945998
    P_9_4 DEM_4 1
    P_9_4 PMAX_9_4 1
    P_9_4 PMIN_9_4 1
    P_9_4 RU_9_4 1
    P_9_4 RD_9_4 -1
    P_9_4 RU_9_5 -1
    P_9_4 RD_9_5 1
    MARKER 'MARKER' 'INTORG'
    U_10_4 OBJ 217.85959
    U_10_4 RES_4 80
    U_10_4 PMAX_10_4 -80
    U_10_4 PMIN_10_4 -39.929646
    U_10_4 SU_10_4 -1
    U_10_4 SU_10_5 1
    U_10_4 RU_10_5 -42.93441
    U_10_4 RD_10_4 -42.93441
    U_10_4 MUT_10_4 -1
    U_10_4 MDT_10_4 1
    MARKER 'MARKER' 'INTEND'
    V_10_4 OBJ 1834.7686
    V_10_4 SU_10_4 1
    V_10_4 RU_10_4 -39.929646
    V_10_4 MUT_10_4 1
    W_10_4 SU_10_4 -1
    W_10_4 RD_10_4 -80
    W_10_4 MDT_10_4 1
    W_10_4 MDT_10_5 1
    P_10_4 OBJ 25.71018
    P_10_4 DEM_4 1
    P_10_4 PMAX_10_4 1
    P_10_4 PMIN_10_4 1
    P_10_4 RU_10_4 1
    P_10_4 RD_10_4 -1
    P_10_4 RU_10_5 -1
    P_10_4 RD_10_5 1
    MARKER 'MARKER' 'INTORG'
    U_11_4 OBJ 94.492357
    U_11_4 RES_4 80
    U_11_4 PMAX_11_4 -80
    U_11_4 PMIN_11_4 -35.79394
    U_11_4 SU_11_4 -1
    U_11_4 SU_11_5 1
    U_11_4 RU_11_5 -48.30109
    U_11_4 RD_11_4 -48.30109
    U_11_4 MUT_11_4 -1
    U_11_4 MDT_11_4 1
    MARKER 'MARKER' 'INTEND'
    V_11_4 OBJ 5910.2458
    V_11_4 SU_11_4 1
    V_11_4 RU_11_4 -35.79394
    V_11_4 MUT_11_4 1
    W_11_4 SU_11_4 -1
    W_11_4 RD_11_4 -80
    W_11_4 MDT_11_4 1
    W_11_4 MDT_11_5 1
    W_11_4 MDT_11_6 1
    P_11_4 OBJ 74.699486
    P_11_4 DEM_4 1
    P_11_4 PMAX_11_4 1
    P_11_4 PMIN_11_4 1
    P_11_4 RU_11_4 1
    P_11_4 RD_11_4 -1
    P_11_4 RU_11_5 -1
    P_11_4 RD_11_5 1
    SHED_4 OBJ 1000
    SHED_4 DEM_4 1
    SHED_4 RES_4 1.1
    MARKER 'MARKER' 'INTORG'
    U_0_5 OBJ 501.84639
    U_0_5 RES_5 400
    U_0_5 PMAX_0_5 -400
    U_0_5 PMIN_0_5 -193.7393
    U_0_5 SU_0_5 -1
    U_0_5 SU_0_6 1
    U_0_5 RU_0_6 -237.7552
    U_0_5 RD_0_5 -237.7552
    U_0_5 MUT_0_5 -1
    U_0_5 MDT_0_5 1
    MARKER 'MARKER' 'INTEND'
    V_0_5 OBJ 28051.973
    V_0_5 SU_0_5 1
    V_0_5 RU_0_5 -193.7393
    V_0_5 MUT_0_5 1
    V_0_5 MUT_0_6 1
    V_0_5 MUT_0_7 1
    W_0_5 SU_0_5 -1
    W_0_5 RD_0_5 -400
    W_0_5 MDT_0_5 1
    W_0_5 MDT_0_6 1
    W_0_5 MDT_0_7 1
    P_0_5 OBJ 17.544812
    P_0_5 DEM_5 1
    P_0_5 PMAX_0_5 1
    P_0_5 PMIN_0_5 1
    P_0_5 RU_0_5 1
    P_0_5 RD_0_5 -1
    P_0_5 RU_0_6 -1
    P_0_5 RD_0_6 1
    MARKER 'MARKER' 'INTORG'
    U_1_5 OBJ 799.83128
    U_1_5 RES_5 200
    U_1_5 PMAX_1_5 -200
    U_1_5 PMIN_1_5 -42.144067
    U_1_5 SU_1_5 -1
    U_1_5 SU_1_6 1
    U_1_5 RU_1_6 -124.29356
    U_1_5 RD_1_5 -124.29356
    U_1_5 MUT_1_5 -1
    U_1_5 MDT_1_5 1
    MARKER 'MARKER' 'INTEND'
    V_1_5 OBJ 11661.656
    V_1_5 SU_1_5 1
    V_1_5 RU_1_5 -42.144067
    V_1_5 MUT_1_5 1
    V_1_5 MUT_1_6 1
    V_1_5 MUT_1_7 1
    V_1_5 MUT_1_8 1
    V_1_5 MUT_1_9 1
    W_1_5 SU_1_5 -1
    W_1_5 RD_1_5 -200
    W_1_5 MDT_1_5 1
    W_1_5 MDT_1_6 1
    W_1_5 MDT_1_7 1
    P_1_5 OBJ 45.656078
    P_1_5 DEM_5 1
    P_1_5 PMAX_1_5 1
    P_1_5 PMIN_1_5 1
    P_1_5 RU_1_5 1
    P_1_5 RD_1_5 -1
    P_1_5 RU_1_6 -1
    P_1_5 RD_1_6 1
    MARKER 'MARKER' 'INTORG'
    U_2_5 OBJ 541.96484
    U_2_5 RES_5 150
    U_2_5 PMAX_2_5 -150
    U_2_5 PMIN_2_5 -52.593028
    U_2_5 SU_2_5 -1
    U_2_5 SU_2_6 1
    U_2_5 RU_2_6 -100.91079
    U_2_5 RD_2_5 -100.91079
    U_2_5 MUT_2_5 -1
    U_2_5 MDT_2_5 1
    MARKER 'MARKER' 'INTEND'
    V_2_5 OBJ 6276.1299
    V_2_5 SU_2_5 1
    V_2_5 RU_2_5 -52.593028
    V_2_5 MUT_2_5 1
    V_2_5 MUT_2_6 1
    V_2_5 MUT_2_7 1
    V_2_5 MUT_2_8 1
    W_2_5 SU_2_5 -1
    W_2_5 RD_2_5 -150
    W_2_5 MDT_2_5 1
    W_2_5 MDT_2_6 1
    W_2_5 MDT_2_7 1
    W_2_5 MDT_2_8 1
    P_2_5 OBJ 55.554351
    P_2_5 DEM_5 1
    P_2_5 PMAX_2_5 1
    P_2_5 PMIN_2_5 1
    P_2_5 RU_2_5 1
    P_2_5 RD_2_5 -1
    P_2_5 RU_2_6 -1
    P_2_5 RD_2_6 1
    MARKER 'MARKER' 'INTORG'
    U_3_5 OBJ 338.3616
    U_3_5 RES_5 200
    U_3_5 PMAX_3_5 -200
    U_3_5 PMIN_3_5 -49.869305
    U_3_5 SU_3_5 -1
    U_3_5 SU_3_6 1
    U_3_5 RU_3_6 -73.8871
    U_3_5 RD_3_5 -73.8871
    U_3_5 MUT_3_5 -1
    U_3_5 MDT_3_5 1
    MARKER 'MARKER' 'INTEND'
    V_3_5 OBJ 6120.6398
    V_3_5 SU_3_5 1
    V_3_5 RU_3_5 -49.869305
    V_3_5 MUT_3_5 1
    V_3_5 MUT_3_6 1
    V_3_5 MUT_3_7 1
    V_3_5 MUT_3_8 1
    V_3_5 MUT_3_9 1
    W_3_5 SU_3_5 -1
    W_3_5 RD_3_5 -200
    W_3_5 MDT_3_5 1
    W_3_5 MDT_3_6 1
    W_3_5 MDT_3_7 1
    P_3_5 OBJ 22.98464
    P_3_5 DEM_5 1
    P_3_5 PMAX_3_5 1
    P_3_5 PMIN_3_5 1
    P_3_5 RU_3_5 1
    P_3_5 RD_3_5 -1
    P_3_5 RU_3_6 -1
    P_3_5 RD_3_6 1
    MARKER 'MARKER' 'INTORG'
    U_4_5 OBJ 701.07385
    U_4_5 RES_5 300
    U_4_5 PMAX_4_5 -300
    U_4_5 PMIN_4_5 -110.39013
    U_4_5 SU_4_5 -1
    U_4_5 SU_4_6 1
    U_4_5 RU_4_6 -153.04389
    U_4_5 RD_4_5 -153.04389
    U_4_5 MUT_4_5 -1
    U_4_5 MDT_4_5 1
    MARKER 'MARKER' 'INTEND'
    V_4_5 OBJ 13464.078
    V_4_5 SU_4_5 1
    V_4_5 RU_4_5 -110.39013
    V_4_5 MUT_4_5 1
    V_4_5 MUT_4_6 1
    V_4_5 MUT_4_7 1
    W_4_5 SU_4_5 -1
    W_4_5 RD_4_5 -300
    W_4_5 MDT_4_5 1
    W_4_5 MDT_4_6 1
    W_4_5 MDT_4_7 1
    P_4_5 OBJ 59.782995
    P_4_5 DEM_5 1
    P_4_5 PMAX_4_5 1
    P_4_5 PMIN_4_5 1
    P_4_5 RU_4_5 1
    P_4_5 RD_4_5 -1
    P_4_5 RU_4_6 -1
    P_4_5 RD_4_6 1
    MARKER 'MARKER' 'INTORG'
    U_5_5 OBJ 1304.8049
    U_5_5 RES_5 400
    U_5_5 PMAX_5_5 -400
    U_5_5 PMIN_5_5 -195.42811
    U_5_5 SU_5_5 -1
    U_5_5 SU_5_6 1
    U_5_5 RU_5_6 -193.82507
    U_5_5 RD_5_5 -193.82507
    U_5_5 MUT_5_5 -1
    U_5_5 MDT_5_5 1
    MARKER 'MARKER' 'INTEND'
    V_5_5 OBJ 25163.622
    V_5_5 SU_5_5 1
    V_5_5 RU_5_5 -195.42811
    V_5_5 MUT_5_5 1
    V_5_5 MUT_5_6 1
    V_5_5 MUT_5_7 1
    V_5_5 MUT_5_8 1
    V_5_5 MUT_5_9 1
    W_5_5 SU_5_5 -1
    W_5_5 RD_5_5 -400
    W_5_5 MDT_5_5 1
    W_5_5 MDT_5_6 1
    P_5_5 OBJ 22.253309
    P_5_5 DEM_5 1
    P_5_5 PMAX_5_5 1
    P_5_5 PMIN_5_5 1
    P_5_5 RU_5_5 1
    P_5_5 RD_5_5 -1
    P_5_5 RU_5_6 -1
    P_5_5 RD_5_6 1
    MARKER 'MARKER' 'INTORG'
    U_6_5 OBJ 309.26589
    U_6_5 RES_5 150
    U_6_5 PMAX_6_5 -150
    U_6_5 PMIN_6_5 -52.537848
    U_6_5 SU_6_5 -1
    U_6_5 SU_6_6 1
    U_6_5 RU_6_6 -98.982035
    U_6_5 RD_6_5 -98.982035
    U_6_5 MUT_6_5 -1
    U_6_5 MDT_6_5 1
    MARKER 'MARKER' 'INTEND'
    V_6_5 OBJ 10945.658
    V_6_5 SU_6_5 1
    V_6_5 RU_6_5 -52.537848
    V_6_5 MUT_6_5 1
    V_6_5 MUT_6_6 1
    V_6_5 MUT_6_7 1
    V_6_5 MUT_6_8 1
    W_6_5 SU_6_5 -1
    W_6_5 RD_6_5 -150
    W_6_5 MDT_6_5 1
    W_6_5 MDT_6_6 1
    W_6_5 MDT_6_7 1
    P_6_5 OBJ 52.418602
    P_6_5 DEM_5 1
    P_6_5 PMAX_6_5 1
    P_6_5 PMIN_6_5 1
    P_6_5 RU_6_5 1
    P_6_5 RD_6_5 -1
    P_6_5 RU_6_6 -1
    P_6_5 RD_6_6 1
    MARKER 'MARKER' 'INTORG'
    U_7_5 OBJ 333.08661
    U_7_5 RES_5 200
    U_7_5 PMAX_7_5 -200
    U_7_5 PMIN_7_5 -83.426377
    U_7_5 SU_7_5 -1
    U_7_5 SU_7_6 1
    U_7_5 RU_7_6 -115.96573
    U_7_5 RD_7_5 -115.96573
    U_7_5 MUT_7_5 -1
    U_7_5 MDT_7_5 1
    MARKER 'MARKER' 'INTEND'
    V_7_5 OBJ 7896.0069
    V_7_5 SU_7_5 1
    V_7_5 RU_7_5 -83.426377
    V_7_5 MUT_7_5 1
    V_7_5 MUT_7_6 1
    W_7_5 SU_7_5 -1
    W_7_5 RD_7_5 -200
    W_7_5 MDT_7_5 1
    W_7_5 MDT_7_6 1
    W_7_5 MDT_7_7 1
    P_7_5 OBJ 36.897385
    P_7_5 DEM_5 1
    P_7_5 PMAX_7_5 1
    P_7_5 PMIN_7_5 1
    P_7_5 RU_7_5 1
    P_7_5 RD_7_5 -1
    P_7_5 RU_7_6 -1
    P_7_5 RD_7_6 1
    MARKER 'MARKER' 'INTORG'
    U_8_5 OBJ 467.79261
    U_8_5 RES_5 150
    U_8_5 PMAX_8_5 -150
    U_8_5 PMIN_8_5 -43.930341
    U_8_5 SU_8_5 -1
    U_8_5 SU_8_6 1
    U_8_5 RU_8_6 -76.064865
    U_8_5 RD_8_5 -76.064865
    U_8_5 MUT_8_5 -1
    U_8_5 MDT_8_5 1
    MARKER 'MARKER' 'INTEND'
    V_8_5 OBJ 7538.2394
    V_8_5 SU_8_5 1
    V_8_5 RU_8_5 -43.930341
    V_8_5 MUT_8_5 1
    V_8_5 MUT_8_6 1
    V_8_5 MUT_8_7 1
    V_8_5 MUT_8_8 1
    V_8_5 MUT_8_9 1
    W_8_5 SU_8_5 -1
    W_8_5 RD_8_5 -150
    W_8_5 MDT_8_5 1
    W_8_5 MDT_8_6 1
    W_8_5 MDT_8_7 1
    W_8_5 MDT_8_8 1
    P_8_5 OBJ 58.081277
    P_8_5 DEM_5 1
    P_8_5 PMAX_8_5 1
    P_8_5 PMIN_8_5 1
    P_8_5 RU_8_5 1
    P_8_5 RD_8_5 -1
    P_8_5 RU_8_6 -1
    P_8_5 RD_8_6 1
    MARKER 'MARKER' 'INTORG'
    U_9_5 OBJ 244.21564
    U_9_5 RES_5 80
    U_9_5 PMAX_9_5 -80
    U_9_5 PMIN_9_5 -27.733755
    U_9_5 SU_9_5 -1
    U_9_5 SU_9_6 1
    U_9_5 RU_9_6 -49.096955
    U_9_5 RD_9_5 -49.096955
    U_9_5 MUT_9_5 -1
    U_9_5 MDT_9_5 1
    MARKER 'MARKER' 'INTEND'
    V_9_5 OBJ 5833.9338
    V_9_5 SU_9_5 1
    V_9_5 RU_9_5 -27.733755
    V_9_5 MUT_9_5 1
    V_9_5 MUT_9_6 1
    V_9_5 MUT_9_7 1
    W_9_5 SU_9_5 -1
    W_9_5 RD_9_5 -80
    W_9_5 MDT_9_5 1
    P_9_5 OBJ 40.945998
    P_9_5 DEM_5 1
    P_9_5 PMAX_9_5 1
    P_9_5 PMIN_9_5 1
    P_9_5 RU_9_5 1
    P_9_5 RD_9_5 -1
    P_9_5 RU_9_6 -1
    P_9_5 RD_9_6 1
    MARKER 'MARKER' 'INTORG'
    U_10_5 OBJ 217.85959
    U_10_5 RES_5 80
    U_10_5 PMAX_10_5 -80
    U_10_5 PMIN_10_5 -39.929646
    U_10_5 SU_10_5 -1
    U_10_5 SU_10_6 1
    U_10_5 RU_10_6 -42.93441
    U_10_5 RD_10_5 -42.93441
    U_10_5 MUT_10_5 -1
    U_10_5 MDT_10_5 1
    MARKER 'MARKER' 'INTEND'
    V_10_5 OBJ 1834.7686
    V_10_5 SU_10_5 1
    V_10_5 RU_10_5 -39.929646
    V_10_5 MUT_10_5 1
    W_10_5 SU_10_5 -1
    W_10_5 RD_10_5 -80
    W_10_5 MDT_10_5 1
    W_10_5 MDT_10_6 1
    P_10_5 OBJ 25.71018
    P_10_5 DEM_5 1
    P_10_5 PMAX_10_5 1
    P_10_5 PMIN_10_5 1
    P_10_5 RU_10_5 1
    P_10_5 RD_10_5 -1
    P_10_5 RU_10_6 -1
    P_10_5 RD_10_6 1
    MARKER 'MARKER' 'INTORG'
    U_11_5 OBJ 94.492357
    U_11_5 RES_5 80
    U_11_5 PMAX_11_5 -80
    U_11_5 PMIN_11_5 -35.79394
    U_11_5 SU_11_5 -1
    U_11_5 SU_11_6 1
    U_11_5 RU_11_6 -48.30109
    U_11_5 RD_11_5 -48.30109
    U_11_5 MUT_11_5 -1
    U_11_5 MDT_11_5 1
    MARKER 'MARKER' 'INTEND'
    V_11_5 OBJ 5910.2458
    V_11_5 SU_11_5 1
    V_11_5 RU_11_5 -35.79394
    V_11_5 MUT_11_5 1
    W_11_5 SU_11_5 -1
    W_11_5 RD_11_5 -80
    W_11_5 MDT_11_5 1
    W_11_5 MDT_11_6 1
    W_11_5 MDT_11_7 1
    P_11_5 OBJ 74.699486
    P_11_5 DEM_5 1
    P_11_5 PMAX_11_5 1
    P_11_5 PMIN_11_5 1
    P_11_5 RU_11_5 1
    P_11_5 RD_11_5 -1
    P_11_5 RU_11_6 -1
    P_11_5 RD_11_6 1
    SHED_5 OBJ 1000
    SHED_5 DEM_5 1
    SHED_5 RES_5 1.1
    MARKER 'MARKER' 'INTORG'
    U_0_6 OBJ 501.84639
    U_0_6 RES_6 400
    U_0_6 PMAX_0_6 -400
    U_0_6 PMIN_0_6 -193.7393
    U_0_6 SU_0_6 -1
    U_0_6 SU_0_7 1
    U_0_6 RU_0_7 -237.7552
    U_0_6 RD_0_6 -237.7552
    U_0_6 MUT_0_6 -1
    U_0_6 MDT_0_6 1
    MARKER 'MARKER' 'INTEND'
    V_0_6 OBJ 28051.973
    V_0_6 SU_0_6 1
    V_0_6 RU_0_6 -193.7393
    V_0_6 MUT_0_6 1
    V_0_6 MUT_0_7 1
    V_0_6 MUT_0_8 1
    W_0_6 SU_0_6 -1
    W_0_6 RD_0_6 -400
    W_0_6 MDT_0_6 1
    W_0_6 MDT_0_7 1
    W_0_6 MDT_0_8 1
    P_0_6 OBJ 17.544812
    P_0_6 DEM_6 1
    P_0_6 PMAX_0_6 1
    P_0_6 PMIN_0_6 1
    P_0_6 RU_0_6 1
    P_0_6 RD_0_6 -1
    P_0_6 RU_0_7 -1
    P_0_6 RD_0_7 1
    MARKER 'MARKER' 'INTORG'
    U_1_6 OBJ 799.83128
    U_1_6 RES_6 200
    U_1_6 PMAX_1_6 -200
    U_1_6 PMIN_1_6 -42.144067
    U_1_6 SU_1_6 -1
    U_1_6 SU_1_7 1
    U_1_6 RU_1_7 -124.29356
    U_1_6 RD_1_6 -124.29356
    U_1_6 MUT_1_6 -1
    U_1_6 MDT_1_6 1
    MARKER 'MARKER' 'INTEND'
    V_1_6 OBJ 11661.656
    V_1_6 SU_1_6 1
    V_1_6 RU_1_6 -42.144067
    V_1_6 MUT_1_6 1
    V_1_6 MUT_1_7 1
    V_1_6 MUT_1_8 1
    V_1_6 MUT_1_9 1
    V_1_6 MUT_1_10 1
    W_1_6 SU_1_6 -1
    W_1_6 RD_1_6 -200
    W_1_6 MDT_1_6 1
    W_1_6 MDT_1_7 1
    W_1_6 MDT_1_8 1
    P_1_6 OBJ 45.656078
    P_1_6 DEM_6 1
    P_1_6 PMAX_1_6 1
    P_1_6 PMIN_1_6 1
    P_1_6 RU_1_6 1
    P_1_6 RD_1_6 -1
    P_1_6 RU_1_7 -1
    P_1_6 RD_1_7 1
    MARKER 'MARKER' 'INTORG'
    U_2_6 OBJ 541.96484
    U_2_6 RES_6 150
    U_2_6 PMAX_2_6 -150
    U_2_6 PMIN_2_6 -52.593028
    U_2_6 SU_2_6 -1
    U_2_6 SU_2_7 1
    U_2_6 RU_2_7 -100.91079
    U_2_6 RD_2_6 -100.91079
    U_2_6 MUT_2_6 -1
    U_2_6 MDT_2_6 1
    MARKER 'MARKER' 'INTEND'
    V_2_6 OBJ 6276.1299
    V_2_6 SU_2_6 1
    V_2_6 RU_2_6 -52.593028
    V_2_6 MUT_2_6 1
    V_2_6 MUT_2_7 1
    V_2_6 MUT_2_8 1
    V_2_6 MUT_2_9 1
    W_2_6 SU_2_6 -1
    W_2_6 RD_2_6 -150
    W_2_6 MDT_2_6 1
    W_2_6 MDT_2_7 1
    W_2_6 MDT_2_8 1
    W_2_6 MDT_2_9 1
    P_2_6 OBJ 55.554351
    P_2_6 DEM_6 1
    P_2_6 PMAX_2_6 1
    P_2_6 PMIN_2_6 1
    P_2_6 RU_2_6 1
    P_2_6 RD_2_6 -1
    P_2_6 RU_2_7 -1
    P_2_6 RD_2_7 1
    MARKER 'MARKER' 'INTORG'
    U_3_6 OBJ 338.3616
    U_3_6 RES_6 200
    U_3_6 PMAX_3_6 -200
    U_3_6 PMIN_3_6 -49.869305
    U_3_6 SU_3_6 -1
    U_3_6 SU_3_7 1
    U_3_6 RU_3_7 -73.8871
    U_3_6 RD_3_6 -73.8871
    U_3_6 MUT_3_6 -1
    U_3_6 MDT_3_6 1
    MARKER 'MARKER' 'INTEND'
    V_3_6 OBJ 6120.6398
    V_3_6 SU_3_6 1
    V_3_6 RU_3_6 -49.869305
    V_3_6 MUT_3_6 1
    V_3_6 MUT_3_7 1
    V_3_6 MUT_3_8 1
    V_3_6 MUT_3_9 1
    V_3_6 MUT_3_10 1
    W_3_6 SU_3_6 -1
    W_3_6 RD_3_6 -200
    W_3_6 MDT_3_6 1
    W_3_6 MDT_3_7 1
    W_3_6 MDT_3_8 1
    P_3_6 OBJ 22.98464
    P_3_6 DEM_6 1
    P_3_6 PMAX_3_6 1
    P_3_6 PMIN_3_6 1
    P_3_6 RU_3_6 1
    P_3_6 RD_3_6 -1
    P_3_6 RU_3_7 -1
    P_3_6 RD_3_7 1
    MARKER 'MARKER' 'INTORG'
    U_4_6 OBJ 701.07385
    U_4_6 RES_6 300
    U_4_6 PMAX_4_6 -300
    U_4_6 PMIN_4_6 -110.39013
    U_4_6 SU_4_6 -1
    U_4_6 SU_4_7 1
    U_4_6 RU_4_7 -153.04389
    U_4_6 RD_4_6 -153.04389
    U_4_6 MUT_4_6 -1
    U_4_6 MDT_4_6 1
    MARKER 'MARKER' 'INTEND'
    V_4_6 OBJ 13464.078
    V_4_6 SU_4_6 1
    V_4_6 RU_4_6 -110.39013
    V_4_6 MUT_4_6 1
    V_4_6 MUT_4_7 1
    V_4_6 MUT_4_8 1
    W_4_6 SU_4_6 -1
    W_4_6 RD_4_6 -300
    W_4_6 MDT_4_6 1
    W_4_6 MDT_4_7 1
    W_4_6 MDT_4_8 1
    P_4_6 OBJ 59.782995
    P_4_6 DEM_6 1
    P_4_6 PMAX_4_6 1
    P_4_6 PMIN_4_6 1
    P_4_6 RU_4_6 1
    P_4_6 RD_4_6 -1
    P_4_6 RU_4_7 -1
    P_4_6 RD_4_7 1
    MARKER 'MARKER' 'INTORG'
    U_5_6 OBJ 1304.8049
    U_5_6 RES_6 400
    U_5_6 PMAX_5_6 -400
    U_5_6 PMIN_5_6 -195.42811
    U_5_6 SU_5_6 -1
    U_5_6 SU_5_7 1
    U_5_6 RU_5_7 -193.82507
    U_5_6 RD_5_6 -193.82507
    U_5_6 MUT_5_6 -1
    U_5_6 MDT_5_6 1
    MARKER 'MARKER' 'INTEND'
    V_5_6 OBJ 25163.622
    V_5_6 SU_5_6 1
    V_5_6 RU_5_6 -195.42811
    V_5_6 MUT_5_6 1
    V_5_6 MUT_5_7 1
    V_5_6 MUT_5_8 1
    V_5_6 MUT_5_9 1
    V_5_6 MUT_5_10 1
    W_5_6 SU_5_6 -1
    W_5_6 RD_5_6 -400
    W_5_6 MDT_5_6 1
    W_5_6 MDT_5_7 1
    P_5_6 OBJ 22.253309
    P_5_6 DEM_6 1
    P_5_6 PMAX_5_6 1
    P_5_6 PMIN_5_6 1
    P_5_6 RU_5_6 1
    P_5_6 RD_5_6 -1
    P_5_6 RU_5_7 -1
    P_5_6 RD_5_7 1
    MARKER 'MARKER' 'INTORG'
    U_6_6 OBJ 309.26589
    U_6_6 RES_6 150
    U_6_6 PMAX_6_6 -150
    U_6_6 PMIN_6_6 -52.537848
    U_6_6 SU_6_6 -1
    U_6_6 SU_6_7 1
    U_6_6 RU_6_7 -98.982035
    U_6_6 RD_6_6 -98.982035
    U_6_6 MUT_6_6 -1
    U_6_6 MDT_6_6 1
    MARKER 'MARKER' 'INTEND'
    V_6_6 OBJ 10945.658
    V_6_6 SU_6_6 1
    V_6_6 RU_6_6 -52.537848
    V_6_6 MUT_6_6 1
    V_6_6 MUT_6_7 1
    V_6_6 MUT_6_8 1
    V_6_6 MUT_6_9 1
    W_6_6 SU_6_6 -1
    W_6_6 RD_6_6 -150
    W_6_6 MDT_6_6 1
    W_6_6 MDT_6_7 1
    W_6_6 MDT_6_8 1
    P_6_6 OBJ 52.418602
    P_6_6 DEM_6 1
    P_6_6 PMAX_6_6 1
    P_6_6 PMIN_6_6 1
    P_6_6 RU_6_6 1
    P_6_6 RD_6_6 -1
    P_6_6 RU_6_7 -1
    P_6_6 RD_6_7 1
    MARKER 'MARKER' 'INTORG'
    U_7_6 OBJ 333.08661
    U_7_6 RES_6 200
    U_7_6 PMAX_7_6 -200
    U_7_6 PMIN_7_6 -83.426377
    U_7_6 SU_7_6 -1
    U_7_6 SU_7_7 1
    U_7_6 RU_7_7 -115.96573
    U_7_6 RD_7_6 -115.96573
    U_7_6 MUT_7_6 -1
    U_7_6 MDT_7_6 1
    MARKER 'MARKER' 'INTEND'
    V_7_6 OBJ 7896.0069
    V_7_6 SU_7_6 1
    V_7_6 RU_7_6 -83.426377
    V_7_6 MUT_7_6 1
    V_7_6 MUT_7_7 1
    W_7_6 SU_7_6 -1
    W_7_6 RD_7_6 -200
    W_7_6 MDT_7_6 1
    W_7_6 MDT_7_7 1
    W_7_6 MDT_7_8 1
    P_7_6 OBJ 36.897385
    P_7_6 DEM_6 1
    P_7_6 PMAX_7_6 1
    P_7_6 PMIN_7_6 1
    P_7_6 RU_7_6 1
    P_7_6 RD_7_6 -1
    P_7_6 RU_7_7 -1
    P_7_6 RD_7_7 1
    MARKER 'MARKER' 'INTORG'
    U_8_6 OBJ 467.79261
    U_8_6 RES_6 150
    U_8_6 PMAX_8_6 -150
    U_8_6 PMIN_8_6 -43.930341
    U_8_6 SU_8_6 -1
    U_8_6 SU_8_7 1
    U_8_6 RU_8_7 -76.064865
    U_8_6 RD_8_6 -76.064865
    U_8_6 MUT_8_6 -1
    U_8_6 MDT_8_6 1
    MARKER 'MARKER' 'INTEND'
    V_8_6 OBJ 7538.2394
    V_8_6 SU_8_6 1
    V_8_6 RU_8_6 -43.930341
    V_8_6 MUT_8_6 1
    V_8_6 MUT_8_7 1
    V_8_6 MUT_8_8 1
    V_8_6 MUT_8_9 1
    V_8_6 MUT_8_10 1
    W_8_6 SU_8_6 -1
    W_8_6 RD_8_6 -150
    W_8_6 MDT_8_6 1
    W_8_6 MDT_8_7 1
    W_8_6 MDT_8_8 1
    W_8_6 MDT_8_9 1
    P_8_6 OBJ 58.081277
    P_8_6 DEM_6 1
    P_8_6 PMAX_8_6 1
    P_8_6 PMIN_8_6 1
    P_8_6 RU_8_6 1
    P_8_6 RD_8_6 -1
    P_8_6 RU_8_7 -1
    P_8_6 RD_8_7 1
    MARKER 'MARKER' 'INTORG'
    U_9_6 OBJ 244.21564
    U_9_6 RES_6 80
    U_9_6 PMAX_9_6 -80
    U_9_6 PMIN_9_6 -27.733755
    U_9_6 SU_9_6 -1
    U_9_6 SU_9_7 1
    U_9_6 RU_9_7 -49.096955
    U_9_6 RD_9_6 -49.096955
    U_9_6 MUT_9_6 -1
    U_9_6 MDT_9_6 1
    MARKER 'MARKER' 'INTEND'
    V_9_6 OBJ 5833.9338
    V_9_6 SU_9_6 1
    V_9_6 RU_9_6 -27.733755
    V_9_6 MUT_9_6 1
    V_9_6 MUT_9_7 1
    V_9_6 MUT_9_8 1
    W_9_6 SU_9_6 -1
    W_9_6 RD_9_6 -80
    W_9_6 MDT_9_6 1
    P_9_6 OBJ 40.945998
    P_9_6 DEM_6 1
    P_9_6 PMAX_9_6 1
    P_9_6 PMIN_9_6 1
    P_9_6 RU_9_6 1
    P_9_6 RD_9_6 -1
    P_9_6 RU_9_7 -1
    P_9_6 RD_9_7 1
    MARKER 'MARKER' 'INTORG'
    U_10_6 OBJ 217.85959
    U_10_6 RES_6 80
    U_10_6 PMAX_10_6 -80
    U_10_6 PMIN_10_6 -39.929646
    U_10_6 SU_10_6 -1
    U_10_6 SU_10_7 1
    U_10_6 RU_10_7 -42.93441
    U_10_6 RD_10_6 -42.93441
    U_10_6 MUT_10_6 -1
    U_10_6 MDT_10_6 1
    MARKER 'MARKER' 'INTEND'
    V_10_6 OBJ 1834.7686
    V_10_6 SU_10_6 1
    V_10_6 RU_10_6 -39.929646
    V_10_6 MUT_10_6 1
    W_10_6 SU_10_6 -1
    W_10_6 RD_10_6 -80
    W_10_6 MDT_10_6 1
    W_10_6 MDT_10_7 1
    P_10_6 OBJ 25.71018
    P_10_6 DEM_6 1
    P_10_6 PMAX_10_6 1
    P_10_6 PMIN_10_6 1
    P_10_6 RU_10_6 1
    P_10_6 RD_10_6 -1
    P_10_6 RU_10_7 -1
    P_10_6 RD_10_7 1
    MARKER 'MARKER' 'INTORG'
    U_11_6 OBJ 94.492357
    U_11_6 RES_6 80
    U_11_6 PMAX_11_6 -80
    U_11_6 PMIN_11_6 -35.79394
    U_11_6 SU_11_6 -1
    U_11_6 SU_11_7 1
    U_11_6 RU_11_7 -48.30109
    U_11_6 RD_11_6 -48.30109
    U_11_6 MUT_11_6 -1
    U_11_6 MDT_11_6 1
    MARKER 'MARKER' 'INTEND'
    V_11_6 OBJ 5910.2458
    V_11_6 SU_11_6 1
    V_11_6 RU_11_6 -35.79394
    V_11_6 MUT_11_6 1
    W_11_6 SU_11_6 -1
    W_11_6 RD_11_6 -80
    W_11_6 MDT_11_6 1
    W_11_6 MDT_11_7 1
    W_11_6 MDT_11_8 1
    P_11_6 OBJ 74.699486
    P_11_6 DEM_6 1
    P_11_6 PMAX_11_6 1
    P_11_6 PMIN_11_6 1
    P_11_6 RU_11_6 1
    P_11_6 RD_11_6 -1
    P_11_6 RU_11_7 -1
    P_11_6 RD_11_7 1
    SHED_6 OBJ 1000
    SHED_6 DEM_6 1
    SHED_6 RES_6 1.1
    MARKER 'MARKER' 'INTORG'
    U_0_7 OBJ 501.84639
    U_0_7 RES_7 400
    U_0_7 PMAX_0_7 -400
    U_0_7 PMIN_0_7 -193.7393
    U_0_7 SU_0_7 -1
    U_0_7 SU_0_8 1
    U_0_7 RU_0_8 -237.7552
    U_0_7 RD_0_7 -237.7552
    U_0_7 MUT_0_7 -1
    U_0_7 MDT_0_7 1
    MARKER 'MARKER' 'INTEND'
    V_0_7 OBJ 28051.973
    V_0_7 SU_0_7 1
    V_0_7 RU_0_7 -193.7393
    V_0_7 MUT_0_7 1
    V_0_7 MUT_0_8 1
    V_0_7 MUT_0_9 1
    W_0_7 SU_0_7 -1
    W_0_7 RD_0_7 -400
    W_0_7 MDT_0_7 1
    W_0_7 MDT_0_8 1
    W_0_7 MDT_0_9 1
    P_0_7 OBJ 17.544812
    P_0_7 DEM_7 1
    P_0_7 PMAX_0_7 1
    P_0_7 PMIN_0_7 1
    P_0_7 RU_0_7 1
    P_0_7 RD_0_7 -1
    P_0_7 RU_0_8 -1
    P_0_7 RD_0_8 1
    MARKER 'MARKER' 'INTORG'
    U_1_7 OBJ 799.83128
    U_1_7 RES_7 200
    U_1_7 PMAX_1_7 -200
    U_1_7 PMIN_1_7 -42.144067
    U_1_7 SU_1_7 -1
    U_1_7 SU_1_8 1
    U_1_7 RU_1_8 -124.29356
    U_1_7 RD_1_7 -124.29356
    U_1_7 MUT_1_7 -1
    U_1_7 MDT_1_7 1
    MARKER 'MARKER' 'INTEND'
    V_1_7 OBJ 11661.656
    V_1_7 SU_1_7 1
    V_1_7 RU_1_7 -42.144067
    V_1_7 MUT_1_7 1
    V_1_7 MUT_1_8 1
    V_1_7 MUT_1_9 1
    V_1_7 MUT_1_10 1
    V_1_7 MUT_1_11 1
    W_1_7 SU_1_7 -1
    W_1_7 RD_1_7 -200
    W_1_7 MDT_1_7 1
    W_1_7 MDT_1_8 1
    W_1_7 MDT_1_9 1
    P_1_7 OBJ 45.656078
    P_1_7 DEM_7 1
    P_1_7 PMAX_1_7 1
    P_1_7 PMIN_1_7 1
    P_1_7 RU_1_7 1
    P_1_7 RD_1_7 -1
    P_1_7 RU_1_8 -1
    P_1_7 RD_1_8 1
    MARKER 'MARKER' 'INTORG'
    U_2_7 OBJ 541.96484
    U_2_7 RES_7 150
    U_2_7 PMAX_2_7 -150
    U_2_7 PMIN_2_7 -52.593028
    U_2_7 SU_2_7 -1
    U_2_7 SU_2_8 1
    U_2_7 RU_2_8 -100.91079
    U_2_7 RD_2_7 -100.91079
    U_2_7 MUT_2_7 -1
    U_2_7 MDT_2_7 1
    MARKER 'MARKER' 'INTEND'
    V_2_7 OBJ 6276.1299
    V_2_7 SU_2_7 1
    V_2_7 RU_2_7 -52.593028
    V_2_7 MUT_2_7 1
    V_2_7 MUT_2_8 1
    V_2_7 MUT_2_9 1
    V_2_7 MUT_2_10 1
    W_2_7 SU_2_7 -1
    W_2_7 RD_2_7 -150
    W_2_7 MDT_2_7 1
    W_2_7 MDT_2_8 1
    W_2_7 MDT_2_9 1
    W_2_7 MDT_2_10 1
    P_2_7 OBJ 55.554351
    P_2_7 DEM_7 1
    P_2_7 PMAX_2_7 1
    P_2_7 PMIN_2_7 1
    P_2_7 RU_2_7 1
    P_2_7 RD_2_7 -1
    P_2_7 RU_2_8 -1
    P_2_7 RD_2_8 1
    MARKER 'MARKER' 'INTORG'
    U_3_7 OBJ 338.3616
    U_3_7 RES_7 200
    U_3_7 PMAX_3_7 -200
    U_3_7 PMIN_3_7 -49.869305
    U_3_7 SU_3_7 -1
    U_3_7 SU_3_8 1
    U_3_7 RU_3_8 -73.8871
    U_3_7 RD_3_7 -73.8871
    U_3_7 MUT_3_7 -1
    U_3_7 MDT_3_7 1
    MARKER 'MARKER' 'INTEND'
    V_3_7 OBJ 6120.6398
    V_3_7 SU_3_7 1
    V_3_7 RU_3_7 -49.869305
    V_3_7 MUT_3_7 1
    V_3_7 MUT_3_8 1
    V_3_7 MUT_3_9 1
    V_3_7 MUT_3_10 1
    V_3_7 MUT_3_11 1
    W_3_7 SU_3_7 -1
    W_3_7 RD_3_7 -200
    W_3_7 MDT_3_7 1
    W_3_7 MDT_3_8 1
    W_3_7 MDT_3_9 1
    P_3_7 OBJ 22.98464
    P_3_7 DEM_7 1
    P_3_7 PMAX_3_7 1
    P_3_7 PMIN_3_7 1
    P_3_7 RU_3_7 1
    P_3_7 RD_3_7 -1
    P_3_7 RU_3_8 -1
    P_3_7 RD_3_8 1
    MARKER 'MARKER' 'INTORG'
    U_4_7 OBJ 701.07385
    U_4_7 RES_7 300
    U_4_7 PMAX_4_7 -300
    U_4_7 PMIN_4_7 -110.39013
    U_4_7 SU_4_7 -1
    U_4_7 SU_4_8 1
    U_4_7 RU_4_8 -153.04389
    U_4_7 RD_4_7 -153.04389
    U_4_7 MUT_4_7 -1
    U_4_7 MDT_4_7 1
    MARKER 'MARKER' 'INTEND'
    V_4_7 OBJ 13464.078
    V_4_7 SU_4_7 1
    V_4_7 RU_4_7 -110.39013
    V_4_7 MUT_4_7 1
    V_4_7 MUT_4_8 1
    V_4_7 MUT_4_9 1
    W_4_7 SU_4_7 -1
    W_4_7 RD_4_7 -300
    W_4_7 MDT_4_7 1
    W_4_7 MDT_4_8 1
    W_4_7 MDT_4_9 1
    P_4_7 OBJ 59.782995
    P_4_7 DEM_7 1
    P_4_7 PMAX_4_7 1
    P_4_7 PMIN_4_7 1
    P_4_7 RU_4_7 1
    P_4_7 RD_4_7 -1
    P_4_7 RU_4_8 -1
    P_4_7 RD_4_8 1
    MARKER 'MARKER' 'INTORG'
    U_5_7 OBJ 1304.8049
    U_5_7 RES_7 400
    U_5_7 PMAX_5_7 -400
    U_5_7 PMIN_5_7 -195.42811
    U_5_7 SU_5_7 -1
    U_5_7 SU_5_8 1
    U_5_7 RU_5_8 -193.82507
    U_5_7 RD_5_7 -193.82507
    U_5_7 MUT_5_7 -1
    U_5_7 MDT_5_7 1
    MARKER 'MARKER' 'INTEND'
    V_5_7 OBJ 25163.622
    V_5_7 SU_5_7 1
    V_5_7 RU_5_7 -195.42811
    V_5_7 MUT_5_7 1
    V_5_7 MUT_5_8 1
    V_5_7 MUT_5_9 1
    V_5_7 MUT_5_10 1
    V_5_7 MUT_5_11 1
    W_5_7 SU_5_7 -1
    W_5_7 RD_5_7 -400
    W_5_7 MDT_5_7 1
    W_5_7 MDT_5_8 1
    P_5_7 OBJ 22.253309
    P_5_7 DEM_7 1
    P_5_7 PMAX_5_7 1
    P_5_7 PMIN_5_7 1
    P_5_7 RU_5_7 1
    P_5_7 RD_5_7 -1
    P_5_7 RU_5_8 -1
    P_5_7 RD_5_8 1
    MARKER 'MARKER' 'INTORG'
    U_6_7 OBJ 309.26589
    U_6_7 RES_7 150
    U_6_7 PMAX_6_7 -150
    U_6_7 PMIN_6_7 -52.537848
    U_6_7 SU_6_7 -1
    U_6_7 SU_6_8 1
    U_6_7 RU_6_8 -98.982035
    U_6_7 RD_6_7 -98.982035
    U_6_7 MUT_6_7 -1
    U_6_7 MDT_6_7 1
    MARKER 'MARKER' 'INTEND'
    V_6_7 OBJ 10945.658
    V_6_7 SU_6_7 1
    V_6_7 RU_6_7 -52.537848
    V_6_7 MUT_6_7 1
    V_6_7 MUT_6_8 1
    V_6_7 MUT_6_9 1
    V_6_7 MUT_6_10 1
    W_6_7 SU_6_7 -1
    W_6_7 RD_6_7 -150
    W_6_7 MDT_6_7 1
    W_6_7 MDT_6_8 1
    W_6_7 MDT_6_9 1
    P_6_7 OBJ 52.418602
    P_6_7 DEM_7 1
    P_6_7 PMAX_6_7 1
    P_6_7 PMIN_6_7 1
    P_6_7 RU_6_7 1
    P_6_7 RD_6_7 -1
    P_6_7 RU_6_8 -1
    P_6_7 RD_6_8 1
    MARKER 'MARKER' 'INTORG'
    U_7_7 OBJ 333.08661
    U_7_7 RES_7 200
    U_7_7 PMAX_7_7 -200
    U_7_7 PMIN_7_7 -83.426377
    U_7_7 SU_7_7 -1
    U_7_7 SU_7_8 1
    U_7_7 RU_7_8 -115.96573
    U_7_7 RD_7_7 -115.96573
    U_7_7 MUT_7_7 -1
    U_7_7 MDT_7_7 1
    MARKER 'MARKER' 'INTEND'
    V_7_7 OBJ 7896.0069
    V_7_7 SU_7_7 1
    V_7_7 RU_7_7 -83.426377
    V_7_7 MUT_7_7 1
    V_7_7 MUT_7_8 1
    W_7_7 SU_7_7 -1
    W_7_7 RD_7_7 -200
    W_7_7 MDT_7_7 1
    W_7_7 MDT_7_8 1
    W_7_7 MDT_7_9 1
    P_7_7 OBJ 36.897385
    P_7_7 DEM_7 1
    P_7_7 PMAX_7_7 1
    P_7_7 PMIN_7_7 1
    P_7_7 RU_7_7 1
    P_7_7 RD_7_7 -1
    P_7_7 RU_7_8 -1
    P_7_7 RD_7_8 1
    MARKER 'MARKER' 'INTORG'
    U_8_7 OBJ 467.79261
    U_8_7 RES_7 150
    U_8_7 PMAX_8_7 -150
    U_8_7 PMIN_8_7 -43.930341
    U_8_7 SU_8_7 -1
    U_8_7 SU_8_8 1
    U_8_7 RU_8_8 -76.064865
    U_8_7 RD_8_7 -76.064865
    U_8_7 MUT_8_7 -1
    U_8_7 MDT_8_7 1
    MARKER 'MARKER' 'INTEND'
    V_8_7 OBJ 7538.2394
    V_8_7 SU_8_7 1
    V_8_7 RU_8_7 -43.930341
    V_8_7 MUT_8_7 1
    V_8_7 MUT_8_8 1
    V_8_7 MUT_8_9 1
    V_8_7 MUT_8_10 1
    V_8_7 MUT_8_11 1
    W_8_7 SU_8_7 -1
    W_8_7 RD_8_7 -150
    W_8_7 MDT_8_7 1
    W_8_7 MDT_8_8 1
    W_8_7 MDT_8_9 1
    W_8_7 MDT_8_10 1
    P_8_7 OBJ 58.081277
    P_8_7 DEM_7 1
    P_8_7 PMAX_8_7 1
    P_8_7 PMIN_8_7 1
    P_8_7 RU_8_7 1
    P_8_7 RD_8_7 -1
    P_8_7 RU_8_8 -1
    P_8_7 RD_8_8 1
    MARKER 'MARKER' 'INTORG'
    U_9_7 OBJ 244.21564
    U_9_7 RES_7 80
    U_9_7 PMAX_9_7 -80
    U_9_7 PMIN_9_7 -27.733755
    U_9_7 SU_9_7 -1
    U_9_7 SU_9_8 1
    U_9_7 RU_9_8 -49.096955
    U_9_7 RD_9_7 -49.096955
    U_9_7 MUT_9_7 -1
    U_9_7 MDT_9_7 1
    MARKER 'MARKER' 'INTEND'
    V_9_7 OBJ 5833.9338
    V_9_7 SU_9_7 1
    V_9_7 RU_9_7 -27.733755
    V_9_7 MUT_9_7 1
    V_9_7 MUT_9_8 1
    V_9_7 MUT_9_9 1
    W_9_7 SU_9_7 -1
    W_9_7 RD_9_7 -80
    W_9_7 MDT_9_7 1
    P_9_7 OBJ 40.945998
    P_9_7 DEM_7 1
    P_9_7 PMAX_9_7 1
    P_9_7 PMIN_9_7 1
    P_9_7 RU_9_7 1
    P_9_7 RD_9_7 -1
    P_9_7 RU_9_8 -1
    P_9_7 RD_9_8 1
    MARKER 'MARKER' 'INTORG'
    U_10_7 OBJ 217.85959
    U_10_7 RES_7 80
    U_10_7 PMAX_10_7 -80
    U_10_7 PMIN_10_7 -39.929646
    U_10_7 SU_10_7 -1
    U_10_7 SU_10_8 1
    U_10_7 RU_10_8 -42.93441
    U_10_7 RD_10_7 -42.93441
    U_10_7 MUT_10_7 -1
    U_10_7 MDT_10_7 1
    MARKER 'MARKER' 'INTEND'
    V_10_7 OBJ 1834.7686
    V_10_7 SU_10_7 1
    V_10_7 RU_10_7 -39.929646
    V_10_7 MUT_10_7 1
    W_10_7 SU_10_7 -1
    W_10_7 RD_10_7 -80
    W_10_7 MDT_10_7 1
    W_10_7 MDT_10_8 1
    P_10_7 OBJ 25.71018
    P_10_7 DEM_7 1
    P_10_7 PMAX_10_7 1
    P_10_7 PMIN_10_7 1
    P_10_7 RU_10_7 1
    P_10_7 RD_10_7 -1
    P_10_7 RU_10_8 -1
    P_10_7 RD_10_8 1
    MARKER 'MARKER' 'INTORG'
    U_11_7 OBJ 94.492357
    U_11_7 RES_7 80
    U_11_7 PMAX_11_7 -80
    U_11_7 PMIN_11_7 -35.79394
    U_11_7 SU_11_7 -1
    U_11_7 SU_11_8 1
    U_11_7 RU_11_8 -48.30109
    U_11_7 RD_11_7 -48.30109
    U_11_7 MUT_11_7 -1
    U_11_7 MDT_11_7 1
    MARKER 'MARKER' 'INTEND'
    V_11_7 OBJ 5910.2458
    V_11_7 SU_11_7 1
    V_11_7 RU_11_7 -35.79394
    V_11_7 MUT_11_7 1
    W_11_7 SU_11_7 -1
    W_11_7 RD_11_7 -80
    W_11_7 MDT_11_7 1
    W_11_7 MDT_11_8 1
    W_11_7 MDT_11_9 1
    P_11_7 OBJ 74.699486
    P_11_7 DEM_7 1
    P_11_7 PMAX_11_7 1
    P_11_7 PMIN_11_7 1
    P_11_7 RU_11_7 1
    P_11_7 RD_11_7 -1
    P_11_7 RU_11_8 -1
    P_11_7 RD_11_8 1
    SHED_7 OBJ 1000
    SHED_7 DEM_7 1
    SHED_7 RES_7 1.1
    MARKER 'MARKER' 'INTORG'
    U_0_8 OBJ 501.84639
    U_0_8 RES_8 400
    U_0_8 PMAX_0_8 -400
    U_0_8 PMIN_0_8 -193.7393
    U_0_8 SU_0_8 -1
    U_0_8 SU_0_9 1
    U_0_8 RU_0_9 -237.7552
    U_0_8 RD_0_8 -237.7552
    U_0_8 MUT_0_8 -1
    U_0_8 MDT_0_8 1
    MARKER 'MARKER' 'INTEND'
    V_0_8 OBJ 28051.973
    V_0_8 SU_0_8 1
    V_0_8 RU_0_8 -193.7393
    V_0_8 MUT_0_8 1
    V_0_8 MUT_0_9 1
    V_0_8 MUT_0_10 1
    W_0_8 SU_0_8 -1
    W_0_8 RD_0_8 -400
    W_0_8 MDT_0_8 1
    W_0_8 MDT_0_9 1
    W_0_8 MDT_0_10 1
    P_0_8 OBJ 17.544812
    P_0_8 DEM_8 1
    P_0_8 PMAX_0_8 1
    P_0_8 PMIN_0_8 1
    P_0_8 RU_0_8 1
    P_0_8 RD_0_8 -1
    P_0_8 RU_0_9 -1
    P_0_8 RD_0_9 1
    MARKER 'MARKER' 'INTORG'
    U_1_8 OBJ 799.83128
    U_1_8 RES_8 200
    U_1_8 PMAX_1_8 -200
    U_1_8 PMIN_1_8 -42.144067
    U_1_8 SU_1_8 -1
    U_1_8 SU_1_9 1
    U_1_8 RU_1_9 -124.29356
    U_1_8 RD_1_8 -124.29356
    U_1_8 MUT_1_8 -1
    U_1_8 MDT_1_8 1
    MARKER 'MARKER' 'INTEND'
    V_1_8 OBJ 11661.656
    V_1_8 SU_1_8 1
    V_1_8 RU_1_8 -42.144067
    V_1_8 MUT_1_8 1
    V_1_8 MUT_1_9 1
    V_1_8 MUT_1_10 1
    V_1_8 MUT_1_11 1
    V_1_8 MUT_1_12 1
    W_1_8 SU_1_8 -1
    W_1_8 RD_1_8 -200
    W_1_8 MDT_1_8 1
    W_1_8 MDT_1_9 1
    W_1_8 MDT_1_10 1
    P_1_8 OBJ 45.656078
    P_1_8 DEM_8 1
    P_1_8 PMAX_1_8 1
    P_1_8 PMIN_1_8 1
    P_1_8 RU_1_8 1
    P_1_8 RD_1_8 -1
    P_1_8 RU_1_9 -1
    P_1_8 RD_1_9 1
    MARKER 'MARKER' 'INTORG'
    U_2_8 OBJ 541.96484
    U_2_8 RES_8 150
    U_2_8 PMAX_2_8 -150
    U_2_8 PMIN_2_8 -52.593028
    U_2_8 SU_2_8 -1
    U_2_8 SU_2_9 1
    U_2_8 RU_2_9 -100.91079
    U_2_8 RD_2_8 -100.91079
    U_2_8 MUT_2_8 -1
    U_2_8 MDT_2_8 1
    MARKER 'MARKER' 'INTEND'
    V_2_8 OBJ 6276.1299
    V_2_8 SU_2_8 1
    V_2_8 RU_2_8 -52.593028
    V_2_8 MUT_2_8 1
    V_2_8 MUT_2_9 1
    V_2_8 MUT_2_10 1
    V_2_8 MUT_2_11 1
    W_2_8 SU_2_8 -1
    W_2_8 RD_2_8 -150
    W_2_8 MDT_2_8 1
    W_2_8 MDT_2_9 1
    W_2_8 MDT_2_10 1
    W_2_8 MDT_2_11 1
    P_2_8 OBJ 55.554351
    P_2_8 DEM_8 1
    P_2_8 PMAX_2_8 1
    P_2_8 PMIN_2_8 1
    P_2_8 RU_2_8 1
    P_2_8 RD_2_8 -1
    P_2_8 RU_2_9 -1
    P_2_8 RD_2_9 1
    MARKER 'MARKER' 'INTORG'
    U_3_8 OBJ 338.3616
    U_3_8 RES_8 200
    U_3_8 PMAX_3_8 -200
    U_3_8 PMIN_3_8 -49.869305
    U_3_8 SU_3_8 -1
    U_3_8 SU_3_9 1
    U_3_8 RU_3_9 -73.8871
    U_3_8 RD_3_8 -73.8871
    U_3_8 MUT_3_8 -1
    U_3_8 MDT_3_8 1
    MARKER 'MARKER' 'INTEND'
    V_3_8 OBJ 6120.6398
    V_3_8 SU_3_8 1
    V_3_8 RU_3_8 -49.869305
    V_3_8 MUT_3_8 1
    V_3_8 MUT_3_9 1
    V_3_8 MUT_3_10 1
    V_3_8 MUT_3_11 1
    V_3_8 MUT_3_12 1
    W_3_8 SU_3_8 -1
    W_3_8 RD_3_8 -200
    W_3_8 MDT_3_8 1
    W_3_8 MDT_3_9 1
    W_3_8 MDT_3_10 1
    P_3_8 OBJ 22.98464
    P_3_8 DEM_8 1
    P_3_8 PMAX_3_8 1
    P_3_8 PMIN_3_8 1
    P_3_8 RU_3_8 1
    P_3_8 RD_3_8 -1
    P_3_8 RU_3_9 -1
    P_3_8 RD_3_9 1
    MARKER 'MARKER' 'INTORG'
    U_4_8 OBJ 701.07385
    U_4_8 RES_8 300
    U_4_8 PMAX_4_8 -300
    U_4_8 PMIN_4_8 -110.39013
    U_4_8 SU_4_8 -1
    U_4_8 SU_4_9 1
    U_4_8 RU_4_9 -153.04389
    U_4_8 RD_4_8 -153.04389
    U_4_8 MUT_4_8 -1
    U_4_8 MDT_4_8 1
    MARKER 'MARKER' 'INTEND'
    V_4_8 OBJ 13464.078
    V_4_8 SU_4_8 1
    V_4_8 RU_4_8 -110.39013
    V_4_8 MUT_4_8 1
    V_4_8 MUT_4_9 1
    V_4_8 MUT_4_10 1
    W_4_8 SU_4_8 -1
    W_4_8 RD_4_8 -300
    W_4_8 MDT_4_8 1
    W_4_8 MDT_4_9 1
    W_4_8 MDT_4_10 1
    P_4_8 OBJ 59.782995
    P_4_8 DEM_8 1
    P_4_8 PMAX_4_8 1
    P_4_8 PMIN_4_8 1
    P_4_8 RU_4_8 1
    P_4_8 RD_4_8 -1
    P_4_8 RU_4_9 -1
    P_4_8 RD_4_9 1
    MARKER 'MARKER' 'INTORG'
    U_5_8 OBJ 1304.8049
    U_5_8 RES_8 400
    U_5_8 PMAX_5_8 -400
    U_5_8 PMIN_5_8 -195.42811
    U_5_8 SU_5_8 -1
    U_5_8 SU_5_9 1
    U_5_8 RU_5_9 -193.82507
    U_5_8 RD_5_8 -193.82507
    U_5_8 MUT_5_8 -1
    U_5_8 MDT_5_8 1
    MARKER 'MARKER' 'INTEND'
    V_5_8 OBJ 25163.622
    V_5_8 SU_5_8 1
    V_5_8 RU_5_8 -195.42811
    V_5_8 MUT_5_8 1
    V_5_8 MUT_5_9 1
    V_5_8 MUT_5_10 1
    V_5_8 MUT_5_11 1
    V_5_8 MUT_5_12 1
    W_5_8 SU_5_8 -1
    W_5_8 RD_5_8 -400
    W_5_8 MDT_5_8 1
    W_5_8 MDT_5_9 1
    P_5_8 OBJ 22.253309
    P_5_8 DEM_8 1
    P_5_8 PMAX_5_8 1
    P_5_8 PMIN_5_8 1
    P_5_8 RU_5_8 1
    P_5_8 RD_5_8 -1
    P_5_8 RU_5_9 -1
    P_5_8 RD_5_9 1
    MARKER 'MARKER' 'INTORG'
    U_6_8 OBJ 309.26589
    U_6_8 RES_8 150
    U_6_8 PMAX_6_8 -150
    U_6_8 PMIN_6_8 -52.537848
    U_6_8 SU_6_8 -1
    U_6_8 SU_6_9 1
    U_6_8 RU_6_9 -98.982035
    U_6_8 RD_6_8 -98.982035
    U_6_8 MUT_6_8 -1
    U_6_8 MDT_6_8 1
    MARKER 'MARKER' 'INTEND'
    V_6_8 OBJ 10945.658
    V_6_8 SU_6_8 1
    V_6_8 RU_6_8 -52.537848
    V_6_8 MUT_6_8 1
    V_6_8 MUT_6_9 1
    V_6_8 MUT_6_10 1
    V_6_8 MUT_6_11 1
    W_6_8 SU_6_8 -1
    W_6_8 RD_6_8 -150
    W_6_8 MDT_6_8 1
    W_6_8 MDT_6_9 1
    W_6_8 MDT_6_10 1
    P_6_8 OBJ 52.418602
    P_6_8 DEM_8 1
    P_6_8 PMAX_6_8 1
    P_6_8 PMIN_6_8 1
    P_6_8 RU_6_8 1
    P_6_8 RD_6_8 -1
    P_6_8 RU_6_9 -1
    P_6_8 RD_6_9 1
    MARKER 'MARKER' 'INTORG'
    U_7_8 OBJ 333.08661
    U_7_8 RES_8 200
    U_7_8 PMAX_7_8 -200
    U_7_8 PMIN_7_8 -83.426377
    U_7_8 SU_7_8 -1
    U_7_8 SU_7_9 1
    U_7_8 RU_7_9 -115.96573
    U_7_8 RD_7_8 -115.96573
    U_7_8 MUT_7_8 -1
    U_7_8 MDT_7_8 1
    MARKER 'MARKER' 'INTEND'
    V_7_8 OBJ 7896.0069
    V_7_8 SU_7_8 1
    V_7_8 RU_7_8 -83.426377
    V_7_8 MUT_7_8 1
    V_7_8 MUT_7_9 1
    W_7_8 SU_7_8 -1
    W_7_8 RD_7_8 -200
    W_7_8 MDT_7_8 1
    W_7_8 MDT_7_9 1
    W_7_8 MDT_7_10 1
    P_7_8 OBJ 36.897385
    P_7_8 DEM_8 1
    P_7_8 PMAX_7_8 1
    P_7_8 PMIN_7_8 1
    P_7_8 RU_7_8 1
    P_7_8 RD_7_8 -1
    P_7_8 RU_7_9 -1
    P_7_8 RD_7_9 1
    MARKER 'MARKER' 'INTORG'
    U_8_8 OBJ 467.79261
    U_8_8 RES_8 150
    U_8_8 PMAX_8_8 -150
    U_8_8 PMIN_8_8 -43.930341
    U_8_8 SU_8_8 -1
    U_8_8 SU_8_9 1
    U_8_8 RU_8_9 -76.064865
    U_8_8 RD_8_8 -76.064865
    U_8_8 MUT_8_8 -1
    U_8_8 MDT_8_8 1
    MARKER 'MARKER' 'INTEND'
    V_8_8 OBJ 7538.2394
    V_8_8 SU_8_8 1
    V_8_8 RU_8_8 -43.930341
    V_8_8 MUT_8_8 1
    V_8_8 MUT_8_9 1
    V_8_8 MUT_8_10 1
    V_8_8 MUT_8_11 1
    V_8_8 MUT_8_12 1
    W_8_8 SU_8_8 -1
    W_8_8 RD_8_8 -150
    W_8_8 MDT_8_8 1
    W_8_8 MDT_8_9 1
    W_8_8 MDT_8_10 1
    W_8_8 MDT_8_11 1
    P_8_8 OBJ 58.081277
    P_8_8 DEM_8 1
    P_8_8 PMAX_8_8 1
    P_8_8 PMIN_8_8 1
    P_8_8 RU_8_8 1
    P_8_8 RD_8_8 -1
    P_8_8 RU_8_9 -1
    P_8_8 RD_8_9 1
    MARKER 'MARKER' 'INTORG'
    U_9_8 OBJ 244.21564
    U_9_8 RES_8 80
    U_9_8 PMAX_9_8 -80
    U_9_8 PMIN_9_8 -27.733755
    U_9_8 SU_9_8 -1
    U_9_8 SU_9_9 1
    U_9_8 RU_9_9 -49.096955
    U_9_8 RD_9_8 -49.096955
    U_9_8 MUT_9_8 -1
    U_9_8 MDT_9_8 1
    MARKER 'MARKER' 'INTEND'
    V_9_8 OBJ 5833.9338
    V_9_8 SU_9_8 1
    V_9_8 RU_9_8 -27.733755
    V_9_8 MUT_9_8 1
    V_9_8 MUT_9_9 1
    V_9_8 MUT_9_10 1
    W_9_8 SU_9_8 -1
    W_9_8 RD_9_8 -80
    W_9_8 MDT_9_8 1
    P_9_8 OBJ 40.945998
    P_9_8 DEM_8 1
    P_9_8 PMAX_9_8 1
    P_9_8 PMIN_9_8 1
    P_9_8 RU_9_8 1
    P_9_8 RD_9_8 -1
    P_9_8 RU_9_9 -1
    P_9_8 RD_9_9 1
    MARKER 'MARKER' 'INTORG'
    U_10_8 OBJ 217.85959
    U_10_8 RES_8 80
    U_10_8 PMAX_10_8 -80
    U_10_8 PMIN_10_8 -39.929646
    U_10_8 SU_10_8 -1
    U_10_8 SU_10_9 1
    U_10_8 RU_10_9 -42.93441
    U_10_8 RD_10_8 -42.93441
    U_10_8 MUT_10_8 -1
    U_10_8 MDT_10_8 1
    MARKER 'MARKER' 'INTEND'
    V_10_8 OBJ 1834.7686
    V_10_8 SU_10_8 1
    V_10_8 RU_10_8 -39.929646
    V_10_8 MUT_10_8 1
    W_10_8 SU_10_8 -1
    W_10_8 RD_10_8 -80
    W_10_8 MDT_10_8 1
    W_10_8 MDT_10_9 1
    P_10_8 OBJ 25.71018
    P_10_8 DEM_8 1
    P_10_8 PMAX_10_8 1
    P_10_8 PMIN_10_8 1
    P_10_8 RU_10_8 1
    P_10_8 RD_10_8 -1
    P_10_8 RU_10_9 -1
    P_10_8 RD_10_9 1
    MARKER 'MARKER' 'INTORG'
    U_11_8 OBJ 94.492357
    U_11_8 RES_8 80
    U_11_8 PMAX_11_8 -80
    U_11_8 PMIN_11_8 -35.79394
    U_11_8 SU_11_8 -1
    U_11_8 SU_11_9 1
    U_11_8 RU_11_9 -48.30109
    U_11_8 RD_11_8 -48.30109
    U_11_8 MUT_11_8 -1
    U_11_8 MDT_11_8 1
    MARKER 'MARKER' 'INTEND'
    V_11_8 OBJ 5910.2458
    V_11_8 SU_11_8 1
    V_11_8 RU_11_8 -35.79394
    V_11_8 MUT_11_8 1
    W_11_8 SU_11_8 -1
    W_11_8 RD_11_8 -80
    W_11_8 MDT_11_8 1
    W_11_8 MDT_11_9 1
    W_11_8 MDT_11_10 1
    P_11_8 OBJ 74.699486
    P_11_8 DEM_8 1
    P_11_8 PMAX_11_8 1
    P_11_8 PMIN_11_8 1
    P_11_8 RU_11_8 1
    P_11_8 RD_11_8 -1
    P_11_8 RU_11_9 -1
    P_11_8 RD_11_9 1
    SHED_8 OBJ 1000
    SHED_8 DEM_8 1
    SHED_8 RES_8 1.1
    MARKER 'MARKER' 'INTORG'
    U_0_9 OBJ 501.84639
    U_0_9 RES_9 400
    U_0_9 PMAX_0_9 -400
    U_0_9 PMIN_0_9 -193.7393
    U_0_9 SU_0_9 -1
    U_0_9 SU_0_10 1
    U_0_9 RU_0_10 -237.7552
    U_0_9 RD_0_9 -237.7552
    U_0_9 MUT_0_9 -1
    U_0_9 MDT_0_9 1
    MARKER 'MARKER' 'INTEND'
    V_0_9 OBJ 28051.973
    V_0_9 SU_0_9 1
    V_0_9 RU_0_9 -193.7393
    V_0_9 MUT_0_9 1
    V_0_9 MUT_0_10 1
    V_0_9 MUT_0_11 1
    W_0_9 SU_0_9 -1
    W_0_9 RD_0_9 -400
    W_0_9 MDT_0_9 1
    W_0_9 MDT_0_10 1
    W_0_9 MDT_0_11 1
    P_0_9 OBJ 17.544812
    P_0_9 DEM_9 1
    P_0_9 PMAX_0_9 1
    P_0_9 PMIN_0_9 1
    P_0_9 RU_0_9 1
    P_0_9 RD_0_9 -1
    P_0_9 RU_0_10 -1
    P_0_9 RD_0_10 1
    MARKER 'MARKER' 'INTORG'
    U_1_9 OBJ 799.83128
    U_1_9 RES_9 200
    U_1_9 PMAX_1_9 -200
    U_1_9 PMIN_1_9 -42.144067
    U_1_9 SU_1_9 -1
    U_1_9 SU_1_10 1
    U_1_9 RU_1_10 -124.29356
    U_1_9 RD_1_9 -124.29356
    U_1_9 MUT_1_9 -1
    U_1_9 MDT_1_9 1
    MARKER 'MARKER' 'INTEND'
    V_1_9 OBJ 11661.656
    V_1_9 SU_1_9 1
    V_1_9 RU_1_9 -42.144067
    V_1_9 MUT_1_9 1
    V_1_9 MUT_1_10 1
    V_1_9 MUT_1_11 1
    V_1_9 MUT_1_12 1
    V_1_9 MUT_1_13 1
    W_1_9 SU_1_9 -1
    W_1_9 RD_1_9 -200
    W_1_9 MDT_1_9 1
    W_1_9 MDT_1_10 1
    W_1_9 MDT_1_11 1
    P_1_9 OBJ 45.656078
    P_1_9 DEM_9 1
    P_1_9 PMAX_1_9 1
    P_1_9 PMIN_1_9 1
    P_1_9 RU_1_9 1
    P_1_9 RD_1_9 -1
    P_1_9 RU_1_10 -1
    P_1_9 RD_1_10 1
    MARKER 'MARKER' 'INTORG'
    U_2_9 OBJ 541.96484
    U_2_9 RES_9 150
    U_2_9 PMAX_2_9 -150
    U_2_9 PMIN_2_9 -52.593028
    U_2_9 SU_2_9 -1
    U_2_9 SU_2_10 1
    U_2_9 RU_2_10 -100.91079
    U_2_9 RD_2_9 -100.91079
    U_2_9 MUT_2_9 -1
    U_2_9 MDT_2_9 1
    MARKER 'MARKER' 'INTEND'
    V_2_9 OBJ 6276.1299
    V_2_9 SU_2_9 1
    V_2_9 RU_2_9 -52.593028
    V_2_9 MUT_2_9 1
    V_2_9 MUT_2_10 1
    V_2_9 MUT_2_11 1
    V_2_9 MUT_2_12 1
    W_2_9 SU_2_9 -1
    W_2_9 RD_2_9 -150
    W_2_9 MDT_2_9 1
    W_2_9 MDT_2_10 1
    W_2_9 MDT_2_11 1
    W_2_9 MDT_2_12 1
    P_2_9 OBJ 55.554351
    P_2_9 DEM_9 1
    P_2_9 PMAX_2_9 1
    P_2_9 PMIN_2_9 1
    P_2_9 RU_2_9 1
    P_2_9 RD_2_9 -1
    P_2_9 RU_2_10 -1
    P_2_9 RD_2_10 1
    MARKER 'MARKER' 'INTORG'
    U_3_9 OBJ 338.3616
    U_3_9 RES_9 200
    U_3_9 PMAX_3_9 -200
    U_3_9 PMIN_3_9 -49.869305
    U_3_9 SU_3_9 -1
    U_3_9 SU_3_10 1
    U_3_9 RU_3_10 -73.8871
    U_3_9 RD_3_9 -73.8871
    U_3_9 MUT_3_9 -1
    U_3_9 MDT_3_9 1
    MARKER 'MARKER' 'INTEND'
    V_3_9 OBJ 6120.6398
    V_3_9 SU_3_9 1
    V_3_9 RU_3_9 -49.869305
    V_3_9 MUT_3_9 1
    V_3_9 MUT_3_10 1
    V_3_9 MUT_3_11 1
    V_3_9 MUT_3_12 1
    V_3_9 MUT_3_13 1
    W_3_9 SU_3_9 -1
    W_3_9 RD_3_9 -200
    W_3_9 MDT_3_9 1
    W_3_9 MDT_3_10 1
    W_3_9 MDT_3_11 1
    P_3_9 OBJ 22.98464
    P_3_9 DEM_9 1
    P_3_9 PMAX_3_9 1
    P_3_9 PMIN_3_9 1
    P_3_9 RU_3_9 1
    P_3_9 RD_3_9 -1
    P_3_9 RU_3_10 -1
    P_3_9 RD_3_10 1
    MARKER 'MARKER' 'INTORG'
    U_4_9 OBJ 701.07385
    U_4_9 RES_9 300
    U_4_9 PMAX_4_9 -300
    U_4_9 PMIN_4_9 -110.39013
    U_4_9 SU_4_9 -1
    U_4_9 SU_4_10 1
    U_4_9 RU_4_10 -153.04389
    U_4_9 RD_4_9 -153.04389
    U_4_9 MUT_4_9 -1
    U_4_9 MDT_4_9 1
    MARKER 'MARKER' 'INTEND'
    V_4_9 OBJ 13464.078
    V_4_9 SU_4_9 1
    V_4_9 RU_4_9 -110.39013
    V_4_9 MUT_4_9 1
    V_4_9 MUT_4_10 1
    V_4_9 MUT_4_11 1
    W_4_9 SU_4_9 -1
    W_4_9 RD_4_9 -300
    W_4_9 MDT_4_9 1
    W_4_9 MDT_4_10 1
    W_4_9 MDT_4_11 1
    P_4_9 OBJ 59.782995
    P_4_9 DEM_9 1
    P_4_9 PMAX_4_9 1
    P_4_9 PMIN_4_9 1
    P_4_9 RU_4_9 1
    P_4_9 RD_4_9 -1
    P_4_9 RU_4_10 -1
    P_4_9 RD_4_10 1
    MARKER 'MARKER' 'INTORG'
    U_5_9 OBJ 1304.8049
    U_5_9 RES_9 400
    U_5_9 PMAX_5_9 -400
    U_5_9 PMIN_5_9 -195.42811
    U_5_9 SU_5_9 -1
    U_5_9 SU_5_10 1
    U_5_9 RU_5_10 -193.82507
    U_5_9 RD_5_9 -193.82507
    U_5_9 MUT_5_9 -1
    U_5_9 MDT_5_9 1
    MARKER 'MARKER' 'INTEND'
    V_5_9 OBJ 25163.622
    V_5_9 SU_5_9 1
    V_5_9 RU_5_9 -195.42811
    V_5_9 MUT_5_9 1
    V_5_9 MUT_5_10 1
    V_5_9 MUT_5_11 1
    V_5_9 MUT_5_12 1
    V_5_9 MUT_5_13 1
    W_5_9 SU_5_9 -1
    W_5_9 RD_5_9 -400
    W_5_9 MDT_5_9 1
    W_5_9 MDT_5_10 1
    P_5_9 OBJ 22.253309
    P_5_9 DEM_9 1
    P_5_9 PMAX_5_9 1
    P_5_9 PMIN_5_9 1
    P_5_9 RU_5_9 1
    P_5_9 RD_5_9 -1
    P_5_9 RU_5_10 -1
    P_5_9 RD_5_10 1
    MARKER 'MARKER' 'INTORG'
    U_6_9 OBJ 309.26589
    U_6_9 RES_9 150
    U_6_9 PMAX_6_9 -150
    U_6_9 PMIN_6_9 -52.537848
    U_6_9 SU_6_9 -1
    U_6_9 SU_6_10 1
    U_6_9 RU_6_10 -98.982035
    U_6_9 RD_6_9 -98.982035
    U_6_9 MUT_6_9 -1
    U_6_9 MDT_6_9 1
    MARKER 'MARKER' 'INTEND'
    V_6_9 OBJ 10945.658
    V_6_9 SU_6_9 1
    V_6_9 RU_6_9 -52.537848
    V_6_9 MUT_6_9 1
    V_6_9 MUT_6_10 1
    V_6_9 MUT_6_11 1
    V_6_9 MUT_6_12 1
    W_6_9 SU_6_9 -1
    W_6_9 RD_6_9 -150
    W_6_9 MDT_6_9 1
    W_6_9 MDT_6_10 1
    W_6_9 MDT_6_11 1
    P_6_9 OBJ 52.418602
    P_6_9 DEM_9 1
    P_6_9 PMAX_6_9 1
    P_6_9 PMIN_6_9 1
    P_6_9 RU_6_9 1
    P_6_9 RD_6_9 -1
    P_6_9 RU_6_10 -1
    P_6_9 RD_6_10 1
    MARKER 'MARKER' 'INTORG'
    U_7_9 OBJ 333.08661
    U_7_9 RES_9 200
    U_7_9 PMAX_7_9 -200
    U_7_9 PMIN_7_9 -83.426377
    U_7_9 SU_7_9 -1
    U_7_9 SU_7_10 1
    U_7_9 RU_7_10 -115.96573
    U_7_9 RD_7_9 -115.96573
    U_7_9 MUT_7_9 -1
    U_7_9 MDT_7_9 1
    MARKER 'MARKER' 'INTEND'
    V_7_9 OBJ 7896.0069
    V_7_9 SU_7_9 1
    V_7_9 RU_7_9 -83.426377
    V_7_9 MUT_7_9 1
    V_7_9 MUT_7_10 1
    W_7_9 SU_7_9 -1
    W_7_9 RD_7_9 -200
    W_7_9 MDT_7_9 1
    W_7_9 MDT_7_10 1
    W_7_9 MDT_7_11 1
    P_7_9 OBJ 36.897385
    P_7_9 DEM_9 1
    P_7_9 PMAX_7_9 1
    P_7_9 PMIN_7_9 1
    P_7_9 RU_7_9 1
    P_7_9 RD_7_9 -1
    P_7_9 RU_7_10 -1
    P_7_9 RD_7_10 1
    MARKER 'MARKER' 'INTORG'
    U_8_9 OBJ 467.79261
    U_8_9 RES_9 150
    U_8_9 PMAX_8_9 -150
    U_8_9 PMIN_8_9 -43.930341
    U_8_9 SU_8_9 -1
    U_8_9 SU_8_10 1
    U_8_9 RU_8_10 -76.064865
    U_8_9 RD_8_9 -76.064865
    U_8_9 MUT_8_9 -1
    U_8_9 MDT_8_9 1
    MARKER 'MARKER' 'INTEND'
    V_8_9 OBJ 7538.2394
    V_8_9 SU_8_9 1
    V_8_9 RU_8_9 -43.930341
    V_8_9 MUT_8_9 1
    V_8_9 MUT_8_10 1
    V_8_9 MUT_8_11 1
    V_8_9 MUT_8_12 1
    V_8_9 MUT_8_13 1
    W_8_9 SU_8_9 -1
    W_8_9 RD_8_9 -150
    W_8_9 MDT_8_9 1
    W_8_9 MDT_8_10 1
    W_8_9 MDT_8_11 1
    W_8_9 MDT_8_12 1
    P_8_9 OBJ 58.081277
    P_8_9 DEM_9 1
    P_8_9 PMAX_8_9 1
    P_8_9 PMIN_8_9 1
    P_8_9 RU_8_9 1
    P_8_9 RD_8_9 -1
    P_8_9 RU_8_10 -1
    P_8_9 RD_8_10 1
    MARKER 'MARKER' 'INTORG'
    U_9_9 OBJ 244.21564
    U_9_9 RES_9 80
    U_9_9 PMAX_9_9 -80
    U_9_9 PMIN_9_9 -27.733755
    U_9_9 SU_9_9 -1
    U_9_9 SU_9_10 1
    U_9_9 RU_9_10 -49.096955
    U_9_9 RD_9_9 -49.096955
    U_9_9 MUT_9_9 -1
    U_9_9 MDT_9_9 1
    MARKER 'MARKER' 'INTEND'
    V_9_9 OBJ 5833.9338
    V_9_9 SU_9_9 1
    V_9_9 RU_9_9 -27.733755
    V_9_9 MUT_9_9 1
    V_9_9 MUT_9_10 1
    V_9_9 MUT_9_11 1
    W_9_9 SU_9_9 -1
    W_9_9 RD_9_9 -80
    W_9_9 MDT_9_9 1
    P_9_9 OBJ 40.945998
    P_9_9 DEM_9 1
    P_9_9 PMAX_9_9 1
    P_9_9 PMIN_9_9 1
    P_9_9 RU_9_9 1
    P_9_9 RD_9_9 -1
    P_9_9 RU_9_10 -1
    P_9_9 RD_9_10 1
    MARKER 'MARKER' 'INTORG'
    U_10_9 OBJ 217.85959
    U_10_9 RES_9 80
    U_10_9 PMAX_10_9 -80
    U_10_9 PMIN_10_9 -39.929646
    U_10_9 SU_10_9 -1
    U_10_9 SU_10_10 1
    U_10_9 RU_10_10 -42.93441
    U_10_9 RD_10_9 -42.93441
    U_10_9 MUT_10_9 -1
    U_10_9 MDT_10_9 1
    MARKER 'MARKER' 'INTEND'
    V_10_9 OBJ 1834.7686
    V_10_9 SU_10_9 1
    V_10_9 RU_10_9 -39.929646
    V_10_9 MUT_10_9 1
    W_10_9 SU_10_9 -1
    W_10_9 RD_10_9 -80
    W_10_9 MDT_10_9 1
    W_10_9 MDT_10_10 1
    P_10_9 OBJ 25.71018
    P_10_9 DEM_9 1
    P_10_9 PMAX_10_9 1
    P_10_9 PMIN_10_9 1
    P_10_9 RU_10_9 1
    P_10_9 RD_10_9 -1
    P_10_9 RU_10_10 -1
    P_10_9 RD_10_10 1
    MARKER 'MARKER' 'INTORG'
    U_11_9 OBJ 94.492357
    U_11_9 RES_9 80
    U_11_9 PMAX_11_9 -80
    U_11_9 PMIN_11_9 -35.79394
    U_11_9 SU_11_9 -1
    U_11_9 SU_11_10 1
    U_11_9 RU_11_10 -48.30109
    U_11_9 RD_11_9 -48.30109
    U_11_9 MUT_11_9 -1
    U_11_9 MDT_11_9 1
    MARKER 'MARKER' 'INTEND'
    V_11_9 OBJ 5910.2458
    V_11_9 SU_11_9 1
    V_11_9 RU_11_9 -35.79394
    V_11_9 MUT_11_9 1
    W_11_9 SU_11_9 -1
    W_11_9 RD_11_9 -80
    W_11_9 MDT_11_9 1
    W_11_9 MDT_11_10 1
    W_11_9 MDT_11_11 1
    P_11_9 OBJ 74.699486
    P_11_9 DEM_9 1
    P_11_9 PMAX_11_9 1
    P_11_9 PMIN_11_9 1
    P_11_9 RU_11_9 1
    P_11_9 RD_11_9 -1
    P_11_9 RU_11_10 -1
    P_11_9 RD_11_10 1
    SHED_9 OBJ 1000
    SHED_9 DEM_9 1
    SHED_9 RES_9 1.1
    MARKER 'MARKER' 'INTORG'
    U_0_10 OBJ 501.84639
    U_0_10 RES_10 400
    U_0_10 PMAX_0_10 -400
    U_0_10 PMIN_0_10 -193.7393
    U_0_10 SU_0_10 -1
    U_0_10 SU_0_11 1
    U_0_10 RU_0_11 -237.7552
    U_0_10 RD_0_10 -237.7552
    U_0_10 MUT_0_10 -1
    U_0_10 MDT_0_10 1
    MARKER 'MARKER' 'INTEND'
    V_0_10 OBJ 28051.973
    V_0_10 SU_0_10 1
    V_0_10 RU_0_10 -193.7393
    V_0_10 MUT_0_10 1
    V_0_10 MUT_0_11 1
    V_0_10 MUT_0_12 1
    W_0_10 SU_0_10 -1
    W_0_10 RD_0_10 -400
    W_0_10 MDT_0_10 1
    W_0_10 MDT_0_11 1
    W_0_10 MDT_0_12 1
    P_0_10 OBJ 17.544812
    P_0_10 DEM_10 1
    P_0_10 PMAX_0_10 1
    P_0_10 PMIN_0_10 1
    P_0_10 RU_0_10 1
    P_0_10 RD_0_10 -1
    P_0_10 RU_0_11 -1
    P_0_10 RD_0_11 1
    MARKER 'MARKER' 'INTORG'
    U_1_10 OBJ 799.83128
    U_1_10 RES_10 200
    U_1_10 PMAX_1_10 -200
    U_1_10 PMIN_1_10 -42.144067
    U_1_10 SU_1_10 -1
    U_1_10 SU_1_11 1
    U_1_10 RU_1_11 -124.29356
    U_1_10 RD_1_10 -124.29356
    U_1_10 MUT_1_10 -1
    U_1_10 MDT_1_10 1
    MARKER 'MARKER' 'INTEND'
    V_1_10 OBJ 11661.656
    V_1_10 SU_1_10 1
    V_1_10 RU_1_10 -42.144067
    V_1_10 MUT_1_10 1
    V_1_10 MUT_1_11 1
    V_1_10 MUT_1_12 1
    V_1_10 MUT_1_13 1
    V_1_10 MUT_1_14 1
    W_1_10 SU_1_10 -1
    W_1_10 RD_1_10 -200
    W_1_10 MDT_1_10 1
    W_1_10 MDT_1_11 1
    W_1_10 MDT_1_12 1
    P_1_10 OBJ 45.656078
    P_1_10 DEM_10 1
    P_1_10 PMAX_1_10 1
    P_1_10 PMIN_1_10 1
    P_1_10 RU_1_10 1
    P_1_10 RD_1_10 -1
    P_1_10 RU_1_11 -1
    P_1_10 RD_1_11 1
    MARKER 'MARKER' 'INTORG'
    U_2_10 OBJ 541.96484
    U_2_10 RES_10 150
    U_2_10 PMAX_2_10 -150
    U_2_10 PMIN_2_10 -52.593028
    U_2_10 SU_2_10 -1
    U_2_10 SU_2_11 1
    U_2_10 RU_2_11 -100.91079
    U_2_10 RD_2_10 -100.91079
    U_2_10 MUT_2_10 -1
    U_2_10 MDT_2_10 1
    MARKER 'MARKER' 'INTEND'
    V_2_10 OBJ 6276.1299
    V_2_10 SU_2_10 1
    V_2_10 RU_2_10 -52.593028
    V_2_10 MUT_2_10 1
    V_2_10 MUT_2_11 1
    V_2_10 MUT_2_12 1
    V_2_10 MUT_2_13 1
    W_2_10 SU_2_10 -1
    W_2_10 RD_2_10 -150
    W_2_10 MDT_2_10 1
    W_2_10 MDT_2_11 1
    W_2_10 MDT_2_12 1
    W_2_10 MDT_2_13 1
    P_2_10 OBJ 55.554351
    P_2_10 DEM_10 1
    P_2_10 PMAX_2_10 1
    P_2_10 PMIN_2_10 1
    P_2_10 RU_2_10 1
    P_2_10 RD_2_10 -1
    P_2_10 RU_2_11 -1
    P_2_10 RD_2_11 1
    MARKER 'MARKER' 'INTORG'
    U_3_10 OBJ 338.3616
    U_3_10 RES_10 200
    U_3_10 PMAX_3_10 -200
    U_3_10 PMIN_3_10 -49.869305
    U_3_10 SU_3_10 -1
    U_3_10 SU_3_11 1
    U_3_10 RU_3_11 -73.8871
    U_3_10 RD_3_10 -73.8871
    U_3_10 MUT_3_10 -1
    U_3_10 MDT_3_10 1
    MARKER 'MARKER' 'INTEND'
    V_3_10 OBJ 6120.6398
    V_3_10 SU_3_10 1
    V_3_10 RU_3_10 -49.869305
    V_3_10 MUT_3_10 1
    V_3_10 MUT_3_11 1
    V_3_10 MUT_3_12 1
    V_3_10 MUT_3_13 1
    V_3_10 MUT_3_14 1
    W_3_10 SU_3_10 -1
    W_3_10 RD_3_10 -200
    W_3_10 MDT_3_10 1
    W_3_10 MDT_3_11 1
    W_3_10 MDT_3_12 1
    P_3_10 OBJ 22.98464
    P_3_10 DEM_10 1
    P_3_10 PMAX_3_10 1
    P_3_10 PMIN_3_10 1
    P_3_10 RU_3_10 1
    P_3_10 RD_3_10 -1
    P_3_10 RU_3_11 -1
    P_3_10 RD_3_11 1
    MARKER 'MARKER' 'INTORG'
    U_4_10 OBJ 701.07385
    U_4_10 RES_10 300
    U_4_10 PMAX_4_10 -300
    U_4_10 PMIN_4_10 -110.39013
    U_4_10 SU_4_10 -1
    U_4_10 SU_4_11 1
    U_4_10 RU_4_11 -153.04389
    U_4_10 RD_4_10 -153.04389
    U_4_10 MUT_4_10 -1
    U_4_10 MDT_4_10 1
    MARKER 'MARKER' 'INTEND'
    V_4_10 OBJ 13464.078
    V_4_10 SU_4_10 1
    V_4_10 RU_4_10 -110.39013
    V_4_10 MUT_4_10 1
    V_4_10 MUT_4_11 1
    V_4_10 MUT_4_12 1
    W_4_10 SU_4_10 -1
    W_4_10 RD_4_10 -300
    W_4_10 MDT_4_10 1
    W_4_10 MDT_4_11 1
    W_4_10 MDT_4_12 1
    P_4_10 OBJ 59.782995
    P_4_10 DEM_10 1
    P_4_10 PMAX_4_10 1
    P_4_10 PMIN_4_10 1
    P_4_10 RU_4_10 1
    P_4_10 RD_4_10 -1
    P_4_10 RU_4_11 -1
    P_4_10 RD_4_11 1
    MARKER 'MARKER' 'INTORG'
    U_5_10 OBJ 1304.8049
    U_5_10 RES_10 400
    U_5_10 PMAX_5_10 -400
    U_5_10 PMIN_5_10 -195.42811
    U_5_10 SU_5_10 -1
    U_5_10 SU_5_11 1
    U_5_10 RU_5_11 -193.82507
    U_5_10 RD_5_10 -193.82507
    U_5_10 MUT_5_10 -1
    U_5_10 MDT_5_10 1
    MARKER 'MARKER' 'INTEND'
    V_5_10 OBJ 25163.622
    V_5_10 SU_5_10 1
    V_5_10 RU_5_10 -195.42811
    V_5_10 MUT_5_10 1
    V_5_10 MUT_5_11 1
    V_5_10 MUT_5_12 1
    V_5_10 MUT_5_13 1
    V_5_10 MUT_5_14 1
    W_5_10 SU_5_10 -1
    W_5_10 RD_5_10 -400
    W_5_10 MDT_5_10 1
    W_5_10 MDT_5_11 1
    P_5_10 OBJ 22.253309
    P_5_10 DEM_10 1
    P_5_10 PMAX_5_10 1
    P_5_10 PMIN_5_10 1
    P_5_10 RU_5_10 1
    P_5_10 RD_5_10 -1
    P_5_10 RU_5_11 -1
    P_5_10 RD_5_11 1
    MARKER 'MARKER' 'INTORG'
    U_6_10 OBJ 309.26589
    U_6_10 RES_10 150
    U_6_10 PMAX_6_10 -150
    U_6_10 PMIN_6_10 -52.537848
    U_6_10 SU_6_10 -1
    U_6_10 SU_6_11 1
    U_6_10 RU_6_11 -98.982035
    U_6_10 RD_6_10 -98.982035
    U_6_10 MUT_6_10 -1
    U_6_10 MDT_6_10 1
    MARKER 'MARKER' 'INTEND'
    V_6_10 OBJ 10945.658
    V_6_10 SU_6_10 1
    V_6_10 RU_6_10 -52.537848
    V_6_10 MUT_6_10 1
    V_6_10 MUT_6_11 1
    V_6_10 MUT_6_12 1
    V_6_10 MUT_6_13 1
    W_6_10 SU_6_10 -1
    W_6_10 RD_6_10 -150
    W_6_10 MDT_6_10 1
    W_6_10 MDT_6_11 1
    W_6_10 MDT_6_12 1
    P_6_10 OBJ 52.418602
    P_6_10 DEM_10 1
    P_6_10 PMAX_6_10 1
    P_6_10 PMIN_6_10 1
    P_6_10 RU_6_10 1
    P_6_10 RD_6_10 -1
    P_6_10 RU_6_11 -1
    P_6_10 RD_6_11 1
    MARKER 'MARKER' 'INTORG'
    U_7_10 OBJ 333.08661
    U_7_10 RES_10 200
    U_7_10 PMAX_7_10 -200
    U_7_10 PMIN_7_10 -83.426377
    U_7_10 SU_7_10 -1
    U_7_10 SU_7_11 1
    U_7_10 RU_7_11 -115.96573
    U_7_10 RD_7_10 -115.96573
    U_7_10 MUT_7_10 -1
    U_7_10 MDT_7_10 1
    MARKER 'MARKER' 'INTEND'
    V_7_10 OBJ 7896.0069
    V_7_10 SU_7_10 1
    V_7_10 RU_7_10 -83.426377
    V_7_10 MUT_7_10 1
    V_7_10 MUT_7_11 1
    W_7_10 SU_7_10 -1
    W_7_10 RD_7_10 -200
    W_7_10 MDT_7_10 1
    W_7_10 MDT_7_11 1
    W_7_10 MDT_7_12 1
    P_7_10 OBJ 36.897385
    P_7_10 DEM_10 1
    P_7_10 PMAX_7_10 1
    P_7_10 PMIN_7_10 1
    P_7_10 RU_7_10 1
    P_7_10 RD_7_10 -1
    P_7_10 RU_7_11 -1
    P_7_10 RD_7_11 1
    MARKER 'MARKER' 'INTORG'
    U_8_10 OBJ 467.79261
    U_8_10 RES_10 150
    U_8_10 PMAX_8_10 -150
    U_8_10 PMIN_8_10 -43.930341
    U_8_10 SU_8_10 -1
    U_8_10 SU_8_11 1
    U_8_10 RU_8_11 -76.064865
    U_8_10 RD_8_10 -76.064865
    U_8_10 MUT_8_10 -1
    U_8_10 MDT_8_10 1
    MARKER 'MARKER' 'INTEND'
    V_8_10 OBJ 7538.2394
    V_8_10 SU_8_10 1
    V_8_10 RU_8_10 -43.930341
    V_8_10 MUT_8_10 1
    V_8_10 MUT_8_11 1
    V_8_10 MUT_8_12 1
    V_8_10 MUT_8_13 1
    V_8_10 MUT_8_14 1
    W_8_10 SU_8_10 -1
    W_8_10 RD_8_10 -150
    W_8_10 MDT_8_10 1
    W_8_10 MDT_8_11 1
    W_8_10 MDT_8_12 1
    W_8_10 MDT_8_13 1
    P_8_10 OBJ 58.081277
    P_8_10 DEM_10 1
    P_8_10 PMAX_8_10 1
    P_8_10 PMIN_8_10 1
    P_8_10 RU_8_10 1
    P_8_10 RD_8_10 -1
    P_8_10 RU_8_11 -1
    P_8_10 RD_8_11 1
    MARKER 'MARKER' 'INTORG'
    U_9_10 OBJ 244.21564
    U_9_10 RES_10 80
    U_9_10 PMAX_9_10 -80
    U_9_10 PMIN_9_10 -27.733755
    U_9_10 SU_9_10 -1
    U_9_10 SU_9_11 1
    U_9_10 RU_9_11 -49.096955
    U_9_10 RD_9_10 -49.096955
    U_9_10 MUT_9_10 -1
    U_9_10 MDT_9_10 1
    MARKER 'MARKER' 'INTEND'
    V_9_10 OBJ 5833.9338
    V_9_10 SU_9_10 1
    V_9_10 RU_9_10 -27.733755
    V_9_10 MUT_9_10 1
    V_9_10 MUT_9_11 1
    V_9_10 MUT_9_12 1
    W_9_10 SU_9_10 -1
    W_9_10 RD_9_10 -80
    W_9_10 MDT_9_10 1
    P_9_10 OBJ 40.945998
    P_9_10 DEM_10 1
    P_9_10 PMAX_9_10 1
    P_9_10 PMIN_9_10 1
    P_9_10 RU_9_10 1
    P_9_10 RD_9_10 -1
    P_9_10 RU_9_11 -1
    P_9_10 RD_9_11 1
    MARKER 'MARKER' 'INTORG'
    U_10_10 OBJ 217.85959
    U_10_10 RES_10 80
    U_10_10 PMAX_10_10 -80
    U_10_10 PMIN_10_10 -39.929646
    U_10_10 SU_10_10 -1
    U_10_10 SU_10_11 1
    U_10_10 RU_10_11 -42.93441
    U_10_10 RD_10_10 -42.93441
    U_10_10 MUT_10_10 -1
    U_10_10 MDT_10_10 1
    MARKER 'MARKER' 'INTEND'
    V_10_10 OBJ 1834.7686
    V_10_10 SU_10_10 1
    V_10_10 RU_10_10 -39.929646
    V_10_10 MUT_10_10 1
    W_10_10 SU_10_10 -1
    W_10_10 RD_10_10 -80
    W_10_10 MDT_10_10 1
    W_10_10 MDT_10_11 1
    P_10_10 OBJ 25.71018
    P_10_10 DEM_10 1
    P_10_10 PMAX_10_10 1
    P_10_10 PMIN_10_10 1
    P_10_10 RU_10_10 1
    P_10_10 RD_10_10 -1
    P_10_10 RU_10_11 -1
    P_10_10 RD_10_11 1
    MARKER 'MARKER' 'INTORG'
    U_11_10 OBJ 94.492357
    U_11_10 RES_10 80
    U_11_10 PMAX_11_10 -80
    U_11_10 PMIN_11_10 -35.79394
    U_11_10 SU_11_10 -1
    U_11_10 SU_11_11 1
    U_11_10 RU_11_11 -48.30109
    U_11_10 RD_11_10 -48.30109
    U_11_10 MUT_11_10 -1
    U_11_10 MDT_11_10 1
    MARKER 'MARKER' 'INTEND'
    V_11_10 OBJ 5910.2458
    V_11_10 SU_11_10 1
    V_11_10 RU_11_10 -35.79394
    V_11_10 MUT_11_10 1
    W_11_10 SU_11_10 -1
    W_11_10 RD_11_10 -80
    W_11_10 MDT_11_10 1
    W_11_10 MDT_11_11 1
    W_11_10 MDT_11_12 1
    P_11_10 OBJ 74.699486
    P_11_10 DEM_10 1
    P_11_10 PMAX_11_10 1
    P_11_10 PMIN_11_10 1
    P_11_10 RU_11_10 1
    P_11_10 RD_11_10 -1
    P_11_10 RU_11_11 -1
    P_11_10 RD_11_11 1
    SHED_10 OBJ 1000
    SHED_10 DEM_10 1
    SHED_10 RES_10 1.1
    MARKER 'MARKER' 'INTORG'
    U_0_11 OBJ 501.84639
    U_0_11 RES_11 400
    U_0_11 PMAX_0_11 -400
    U_0_11 PMIN_0_11 -193.7393
    U_0_11 SU_0_11 -1
    U_0_11 SU_0_12 1
    U_0_11 RU_0_12 -237.7552
    U_0_11 RD_0_11 -237.7552
    U_0_11 MUT_0_11 -1
    U_0_11 MDT_0_11 1
    MARKER 'MARKER' 'INTEND'
    V_0_11 OBJ 28051.973
    V_0_11 SU_0_11 1
    V_0_11 RU_0_11 -193.7393
    V_0_11 MUT_0_11 1
    V_0_11 MUT_0_12 1
    V_0_11 MUT_0_13 1
    W_0_11 SU_0_11 -1
    W_0_11 RD_0_11 -400
    W_0_11 MDT_0_11 1
    W_0_11 MDT_0_12 1
    W_0_11 MDT_0_13 1
    P_0_11 OBJ 17.544812
    P_0_11 DEM_11 1
    P_0_11 PMAX_0_11 1
    P_0_11 PMIN_0_11 1
    P_0_11 RU_0_11 1
    P_0_11 RD_0_11 -1
    P_0_11 RU_0_12 -1
    P_0_11 RD_0_12 1
    MARKER 'MARKER' 'INTORG'
    U_1_11 OBJ 799.83128
    U_1_11 RES_11 200
    U_1_11 PMAX_1_11 -200
    U_1_11 PMIN_1_11 -42.144067
    U_1_11 SU_1_11 -1
    U_1_11 SU_1_12 1
    U_1_11 RU_1_12 -124.29356
    U_1_11 RD_1_11 -124.29356
    U_1_11 MUT_1_11 -1
    U_1_11 MDT_1_11 1
    MARKER 'MARKER' 'INTEND'
    V_1_11 OBJ 11661.656
    V_1_11 SU_1_11 1
    V_1_11 RU_1_11 -42.144067
    V_1_11 MUT_1_11 1
    V_1_11 MUT_1_12 1
    V_1_11 MUT_1_13 1
    V_1_11 MUT_1_14 1
    V_1_11 MUT_1_15 1
    W_1_11 SU_1_11 -1
    W_1_11 RD_1_11 -200
    W_1_11 MDT_1_11 1
    W_1_11 MDT_1_12 1
    W_1_11 MDT_1_13 1
    P_1_11 OBJ 45.656078
    P_1_11 DEM_11 1
    P_1_11 PMAX_1_11 1
    P_1_11 PMIN_1_11 1
    P_1_11 RU_1_11 1
    P_1_11 RD_1_11 -1
    P_1_11 RU_1_12 -1
    P_1_11 RD_1_12 1
    MARKER 'MARKER' 'INTORG'
    U_2_11 OBJ 541.96484
    U_2_11 RES_11 150
    U_2_11 PMAX_2_11 -150
    U_2_11 PMIN_2_11 -52.593028
    U_2_11 SU_2_11 -1
    U_2_11 SU_2_12 1
    U_2_11 RU_2_12 -100.91079
    U_2_11 RD_2_11 -100.91079
    U_2_11 MUT_2_11 -1
    U_2_11 MDT_2_11 1
    MARKER 'MARKER' 'INTEND'
    V_2_11 OBJ 6276.1299
    V_2_11 SU_2_11 1
    V_2_11 RU_2_11 -52.593028
    V_2_11 MUT_2_11 1
    V_2_11 MUT_2_12 1
    V_2_11 MUT_2_13 1
    V_2_11 MUT_2_14 1
    W_2_11 SU_2_11 -1
    W_2_11 RD_2_11 -150
    W_2_11 MDT_2_11 1
    W_2_11 MDT_2_12 1
    W_2_11 MDT_2_13 1
    W_2_11 MDT_2_14 1
    P_2_11 OBJ 55.554351
    P_2_11 DEM_11 1
    P_2_11 PMAX_2_11 1
    P_2_11 PMIN_2_11 1
    P_2_11 RU_2_11 1
    P_2_11 RD_2_11 -1
    P_2_11 RU_2_12 -1
    P_2_11 RD_2_12 1
    MARKER 'MARKER' 'INTORG'
    U_3_11 OBJ 338.3616
    U_3_11 RES_11 200
    U_3_11 PMAX_3_11 -200
    U_3_11 PMIN_3_11 -49.869305
    U_3_11 SU_3_11 -1
    U_3_11 SU_3_12 1
    U_3_11 RU_3_12 -73.8871
    U_3_11 RD_3_11 -73.8871
    U_3_11 MUT_3_11 -1
    U_3_11 MDT_3_11 1
    MARKER 'MARKER' 'INTEND'
    V_3_11 OBJ 6120.6398
    V_3_11 SU_3_11 1
    V_3_11 RU_3_11 -49.869305
    V_3_11 MUT_3_11 1
    V_3_11 MUT_3_12 1
    V_3_11 MUT_3_13 1
    V_3_11 MUT_3_14 1
    V_3_11 MUT_3_15 1
    W_3_11 SU_3_11 -1
    W_3_11 RD_3_11 -200
    W_3_11 MDT_3_11 1
    W_3_11 MDT_3_12 1
    W_3_11 MDT_3_13 1
    P_3_11 OBJ 22.98464
    P_3_11 DEM_11 1
    P_3_11 PMAX_3_11 1
    P_3_11 PMIN_3_11 1
    P_3_11 RU_3_11 1
    P_3_11 RD_3_11 -1
    P_3_11 RU_3_12 -1
    P_3_11 RD_3_12 1
    MARKER 'MARKER' 'INTORG'
    U_4_11 OBJ 701.07385
    U_4_11 RES_11 300
    U_4_11 PMAX_4_11 -300
    U_4_11 PMIN_4_11 -110.39013
    U_4_11 SU_4_11 -1
    U_4_11 SU_4_12 1
    U_4_11 RU_4_12 -153.04389
    U_4_11 RD_4_11 -153.04389
    U_4_11 MUT_4_11 -1
    U_4_11 MDT_4_11 1
    MARKER 'MARKER' 'INTEND'
    V_4_11 OBJ 13464.078
    V_4_11 SU_4_11 1
    V_4_11 RU_4_11 -110.39013
    V_4_11 MUT_4_11 1
    V_4_11 MUT_4_12 1
    V_4_11 MUT_4_13 1
    W_4_11 SU_4_11 -1
    W_4_11 RD_4_11 -300
    W_4_11 MDT_4_11 1
    W_4_11 MDT_4_12 1
    W_4_11 MDT_4_13 1
    P_4_11 OBJ 59.782995
    P_4_11 DEM_11 1
    P_4_11 PMAX_4_11 1
    P_4_11 PMIN_4_11 1
    P_4_11 RU_4_11 1
    P_4_11 RD_4_11 -1
    P_4_11 RU_4_12 -1
    P_4_11 RD_4_12 1
    MARKER 'MARKER' 'INTORG'
    U_5_11 OBJ 1304.8049
    U_5_11 RES_11 400
    U_5_11 PMAX_5_11 -400
    U_5_11 PMIN_5_11 -195.42811
    U_5_11 SU_5_11 -1
    U_5_11 SU_5_12 1
    U_5_11 RU_5_12 -193.82507
    U_5_11 RD_5_11 -193.82507
    U_5_11 MUT_5_11 -1
    U_5_11 MDT_5_11 1
    MARKER 'MARKER' 'INTEND'
    V_5_11 OBJ 25163.622
    V_5_11 SU_5_11 1
    V_5_11 RU_5_11 -195.42811
    V_5_11 MUT_5_11 1
    V_5_11 MUT_5_12 1
    V_5_11 MUT_5_13 1
    V_5_11 MUT_5_14 1
    V_5_11 MUT_5_15 1
    W_5_11 SU_5_11 -1
    W_5_11 RD_5_11 -400
    W_5_11 MDT_5_11 1
    W_5_11 MDT_5_12 1
    P_5_11 OBJ 22.253309
    P_5_11 DEM_11 1
    P_5_11 PMAX_5_11 1
    P_5_11 PMIN_5_11 1
    P_5_11 RU_5_11 1
    P_5_11 RD_5_11 -1
    P_5_11 RU_5_12 -1
    P_5_11 RD_5_12 1
    MARKER 'MARKER' 'INTORG'
    U_6_11 OBJ 309.26589
    U_6_11 RES_11 150
    U_6_11 PMAX_6_11 -150
    U_6_11 PMIN_6_11 -52.537848
    U_6_11 SU_6_11 -1
    U_6_11 SU_6_12 1
    U_6_11 RU_6_12 -98.982035
    U_6_11 RD_6_11 -98.982035
    U_6_11 MUT_6_11 -1
    U_6_11 MDT_6_11 1
    MARKER 'MARKER' 'INTEND'
    V_6_11 OBJ 10945.658
    V_6_11 SU_6_11 1
    V_6_11 RU_6_11 -52.537848
    V_6_11 MUT_6_11 1
    V_6_11 MUT_6_12 1
    V_6_11 MUT_6_13 1
    V_6_11 MUT_6_14 1
    W_6_11 SU_6_11 -1
    W_6_11 RD_6_11 -150
    W_6_11 MDT_6_11 1
    W_6_11 MDT_6_12 1
    W_6_11 MDT_6_13 1
    P_6_11 OBJ 52.418602
    P_6_11 DEM_11 1
    P_6_11 PMAX_6_11 1
    P_6_11 PMIN_6_11 1
    P_6_11 RU_6_11 1
    P_6_11 RD_6_11 -1
    P_6_11 RU_6_12 -1
    P_6_11 RD_6_12 1
    MARKER 'MARKER' 'INTORG'
    U_7_11 OBJ 333.08661
    U_7_11 RES_11 200
    U_7_11 PMAX_7_11 -200
    U_7_11 PMIN_7_11 -83.426377
    U_7_11 SU_7_11 -1
    U_7_11 SU_7_12 1
    U_7_11 RU_7_12 -115.96573
    U_7_11 RD_7_11 -115.96573
    U_7_11 MUT_7_11 -1
    U_7_11 MDT_7_11 1
    MARKER 'MARKER' 'INTEND'
    V_7_11 OBJ 7896.0069
    V_7_11 SU_7_11 1
    V_7_11 RU_7_11 -83.426377
    V_7_11 MUT_7_11 1
    V_7_11 MUT_7_12 1
    W_7_11 SU_7_11 -1
    W_7_11 RD_7_11 -200
    W_7_11 MDT_7_11 1
    W_7_11 MDT_7_12 1
    W_7_11 MDT_7_13 1
    P_7_11 OBJ 36.897385
    P_7_11 DEM_11 1
    P_7_11 PMAX_7_11 1
    P_7_11 PMIN_7_11 1
    P_7_11 RU_7_11 1
    P_7_11 RD_7_11 -1
    P_7_11 RU_7_12 -1
    P_7_11 RD_7_12 1
    MARKER 'MARKER' 'INTORG'
    U_8_11 OBJ 467.79261
    U_8_11 RES_11 150
    U_8_11 PMAX_8_11 -150
    U_8_11 PMIN_8_11 -43.930341
    U_8_11 SU_8_11 -1
    U_8_11 SU_8_12 1
    U_8_11 RU_8_12 -76.064865
    U_8_11 RD_8_11 -76.064865
    U_8_11 MUT_8_11 -1
    U_8_11 MDT_8_11 1
    MARKER 'MARKER' 'INTEND'
    V_8_11 OBJ 7538.2394
    V_8_11 SU_8_11 1
    V_8_11 RU_8_11 -43.930341
    V_8_11 MUT_8_11 1
    V_8_11 MUT_8_12 1
    V_8_11 MUT_8_13 1
    V_8_11 MUT_8_14 1
    V_8_11 MUT_8_15 1
    W_8_11 SU_8_11 -1
    W_8_11 RD_8_11 -150
    W_8_11 MDT_8_11 1
    W_8_11 MDT_8_12 1
    W_8_11 MDT_8_13 1
    W_8_11 MDT_8_14 1
    P_8_11 OBJ 58.081277
    P_8_11 DEM_11 1
    P_8_11 PMAX_8_11 1
    P_8_11 PMIN_8_11 1
    P_8_11 RU_8_11 1
    P_8_11 RD_8_11 -1
    P_8_11 RU_8_12 -1
    P_8_11 RD_8_12 1
    MARKER 'MARKER' 'INTORG'
    U_9_11 OBJ 244.21564
    U_9_11 RES_11 80
    U_9_11 PMAX_9_11 -80
    U_9_11 PMIN_9_11 -27.733755
    U_9_11 SU_9_11 -1
    U_9_11 SU_9_12 1
    U_9_11 RU_9_12 -49.096955
    U_9_11 RD_9_11 -49.096955
    U_9_11 MUT_9_11 -1
    U_9_11 MDT_9_11 1
    MARKER 'MARKER' 'INTEND'
    V_9_11 OBJ 5833.9338
    V_9_11 SU_9_11 1
    V_9_11 RU_9_11 -27.733755
    V_9_11 MUT_9_11 1
    V_9_11 MUT_9_12 1
    V_9_11 MUT_9_13 1
    W_9_11 SU_9_11 -1
    W_9_11 RD_9_11 -80
    W_9_11 MDT_9_11 1
    P_9_11 OBJ 40.945998
    P_9_11 DEM_11 1
    P_9_11 PMAX_9_11 1
    P_9_11 PMIN_9_11 1
    P_9_11 RU_9_11 1
    P_9_11 RD_9_11 -1
    P_9_11 RU_9_12 -1
    P_9_11 RD_9_12 1
    MARKER 'MARKER' 'INTORG'
    U_10_11 OBJ 217.85959
    U_10_11 RES_11 80
    U_10_11 PMAX_10_11 -80
    U_10_11 PMIN_10_11 -39.929646
    U_10_11 SU_10_11 -1
    U_10_11 SU_10_12 1
    U_10_11 RU_10_12 -42.93441
    U_10_11 RD_10_11 -42.93441
    U_10_11 MUT_10_11 -1
    U_10_11 MDT_10_11 1
    MARKER 'MARKER' 'INTEND'
    V_10_11 OBJ 1834.7686
    V_10_11 SU_10_11 1
    V_10_11 RU_10_11 -39.929646
    V_10_11 MUT_10_11 1
    W_10_11 SU_10_11 -1
    W_10_11 RD_10_11 -80
    W_10_11 MDT_10_11 1
    W_10_11 MDT_10_12 1
    P_10_11 OBJ 25.71018
    P_10_11 DEM_11 1
    P_10_11 PMAX_10_11 1
    P_10_11 PMIN_10_11 1
    P_10_11 RU_10_11 1
    P_10_11 RD_10_11 -1
    P_10_11 RU_10_12 -1
    P_10_11 RD_10_12 1
    MARKER 'MARKER' 'INTORG'
    U_11_11 OBJ 94.492357
    U_11_11 RES_11 80
    U_11_11 PMAX_11_11 -80
    U_11_11 PMIN_11_11 -35.79394
    U_11_11 SU_11_11 -1
    U_11_11 SU_11_12 1
    U_11_11 RU_11_12 -48.30109
    U_11_11 RD_11_11 -48.30109
    U_11_11 MUT_11_11 -1
    U_11_11 MDT_11_11 1
    MARKER 'MARKER' 'INTEND'
    V_11_11 OBJ 5910.2458
    V_11_11 SU_11_11 1
    V_11_11 RU_11_11 -35.79394
    V_11_11 MUT_11_11 1
    W_11_11 SU_11_11 -1
    W_11_11 RD_11_11 -80
    W_11_11 MDT_11_11 1
    W_11_11 MDT_11_12 1
    W_11_11 MDT_11_13 1
    P_11_11 OBJ 74.699486
    P_11_11 DEM_11 1
    P_11_11 PMAX_11_11 1
    P_11_11 PMIN_11_11 1
    P_11_11 RU_11_11 1
    P_11_11 RD_11_11 -1
    P_11_11 RU_11_12 -1
    P_11_11 RD_11_12 1
    SHED_11 OBJ 1000
    SHED_11 DEM_11 1
    SHED_11 RES_11 1.1
    MARKER 'MARKER' 'INTORG'
    U_0_12 OBJ 501.84639
    U_0_12 RES_12 400
    U_0_12 PMAX_0_12 -400
    U_0_12 PMIN_0_12 -193.7393
    U_0_12 SU_0_12 -1
    U_0_12 SU_0_13 1
    U_0_12 RU_0_13 -237.7552
    U_0_12 RD_0_12 -237.7552
    U_0_12 MUT_0_12 -1
    U_0_12 MDT_0_12 1
    MARKER 'MARKER' 'INTEND'
    V_0_12 OBJ 28051.973
    V_0_12 SU_0_12 1
    V_0_12 RU_0_12 -193.7393
    V_0_12 MUT_0_12 1
    V_0_12 MUT_0_13 1
    V_0_12 MUT_0_14 1
    W_0_12 SU_0_12 -1
    W_0_12 RD_0_12 -400
    W_0_12 MDT_0_12 1
    W_0_12 MDT_0_13 1
    W_0_12 MDT_0_14 1
    P_0_12 OBJ 17.544812
    P_0_12 DEM_12 1
    P_0_12 PMAX_0_12 1
    P_0_12 PMIN_0_12 1
    P_0_12 RU_0_12 1
    P_0_12 RD_0_12 -1
    P_0_12 RU_0_13 -1
    P_0_12 RD_0_13 1
    MARKER 'MARKER' 'INTORG'
    U_1_12 OBJ 799.83128
    U_1_12 RES_12 200
    U_1_12 PMAX_1_12 -200
    U_1_12 PMIN_1_12 -42.144067
    U_1_12 SU_1_12 -1
    U_1_12 SU_1_13 1
    U_1_12 RU_1_13 -124.29356
    U_1_12 RD_1_12 -124.29356
    U_1_12 MUT_1_12 -1
    U_1_12 MDT_1_12 1
    MARKER 'MARKER' 'INTEND'
    V_1_12 OBJ 11661.656
    V_1_12 SU_1_12 1
    V_1_12 RU_1_12 -42.144067
    V_1_12 MUT_1_12 1
    V_1_12 MUT_1_13 1
    V_1_12 MUT_1_14 1
    V_1_12 MUT_1_15 1
    V_1_12 MUT_1_16 1
    W_1_12 SU_1_12 -1
    W_1_12 RD_1_12 -200
    W_1_12 MDT_1_12 1
    W_1_12 MDT_1_13 1
    W_1_12 MDT_1_14 1
    P_1_12 OBJ 45.656078
    P_1_12 DEM_12 1
    P_1_12 PMAX_1_12 1
    P_1_12 PMIN_1_12 1
    P_1_12 RU_1_12 1
    P_1_12 RD_1_12 -1
    P_1_12 RU_1_13 -1
    P_1_12 RD_1_13 1
    MARKER 'MARKER' 'INTORG'
    U_2_12 OBJ 541.96484
    U_2_12 RES_12 150
    U_2_12 PMAX_2_12 -150
    U_2_12 PMIN_2_12 -52.593028
    U_2_12 SU_2_12 -1
    U_2_12 SU_2_13 1
    U_2_12 RU_2_13 -100.91079
    U_2_12 RD_2_12 -100.91079
    U_2_12 MUT_2_12 -1
    U_2_12 MDT_2_12 1
    MARKER 'MARKER' 'INTEND'
    V_2_12 OBJ 6276.1299
    V_2_12 SU_2_12 1
    V_2_12 RU_2_12 -52.593028
    V_2_12 MUT_2_12 1
    V_2_12 MUT_2_13 1
    V_2_12 MUT_2_14 1
    V_2_12 MUT_2_15 1
    W_2_12 SU_2_12 -1
    W_2_12 RD_2_12 -150
    W_2_12 MDT_2_12 1
    W_2_12 MDT_2_13 1
    W_2_12 MDT_2_14 1
    W_2_12 MDT_2_15 1
    P_2_12 OBJ 55.554351
    P_2_12 DEM_12 1
    P_2_12 PMAX_2_12 1
    P_2_12 PMIN_2_12 1
    P_2_12 RU_2_12 1
    P_2_12 RD_2_12 -1
    P_2_12 RU_2_13 -1
    P_2_12 RD_2_13 1
    MARKER 'MARKER' 'INTORG'
    U_3_12 OBJ 338.3616
    U_3_12 RES_12 200
    U_3_12 PMAX_3_12 -200
    U_3_12 PMIN_3_12 -49.869305
    U_3_12 SU_3_12 -1
    U_3_12 SU_3_13 1
    U_3_12 RU_3_13 -73.8871
    U_3_12 RD_3_12 -73.8871
    U_3_12 MUT_3_12 -1
    U_3_12 MDT_3_12 1
    MARKER 'MARKER' 'INTEND'
    V_3_12 OBJ 6120.6398
    V_3_12 SU_3_12 1
    V_3_12 RU_3_12 -49.869305
    V_3_12 MUT_3_12 1
    V_3_12 MUT_3_13 1
    V_3_12 MUT_3_14 1
    V_3_12 MUT_3_15 1
    V_3_12 MUT_3_16 1
    W_3_12 SU_3_12 -1
    W_3_12 RD_3_12 -200
    W_3_12 MDT_3_12 1
    W_3_12 MDT_3_13 1
    W_3_12 MDT_3_14 1
    P_3_12 OBJ 22.98464
    P_3_12 DEM_12 1
    P_3_12 PMAX_3_12 1
    P_3_12 PMIN_3_12 1
    P_3_12 RU_3_12 1
    P_3_12 RD_3_12 -1
    P_3_12 RU_3_13 -1
    P_3_12 RD_3_13 1
    MARKER 'MARKER' 'INTORG'
    U_4_12 OBJ 701.07385
    U_4_12 RES_12 300
    U_4_12 PMAX_4_12 -300
    U_4_12 PMIN_4_12 -110.39013
    U_4_12 SU_4_12 -1
    U_4_12 SU_4_13 1
    U_4_12 RU_4_13 -153.04389
    U_4_12 RD_4_12 -153.04389
    U_4_12 MUT_4_12 -1
    U_4_12 MDT_4_12 1
    MARKER 'MARKER' 'INTEND'
    V_4_12 OBJ 13464.078
    V_4_12 SU_4_12 1
    V_4_12 RU_4_12 -110.39013
    V_4_12 MUT_4_12 1
    V_4_12 MUT_4_13 1
    V_4_12 MUT_4_14 1
    W_4_12 SU_4_12 -1
    W_4_12 RD_4_12 -300
    W_4_12 MDT_4_12 1
    W_4_12 MDT_4_13 1
    W_4_12 MDT_4_14 1
    P_4_12 OBJ 59.782995
    P_4_12 DEM_12 1
    P_4_12 PMAX_4_12 1
    P_4_12 PMIN_4_12 1
    P_4_12 RU_4_12 1
    P_4_12 RD_4_12 -1
    P_4_12 RU_4_13 -1
    P_4_12 RD_4_13 1
    MARKER 'MARKER' 'INTORG'
    U_5_12 OBJ 1304.8049
    U_5_12 RES_12 400
    U_5_12 PMAX_5_12 -400
    U_5_12 PMIN_5_12 -195.42811
    U_5_12 SU_5_12 -1
    U_5_12 SU_5_13 1
    U_5_12 RU_5_13 -193.82507
    U_5_12 RD_5_12 -193.82507
    U_5_12 MUT_5_12 -1
    U_5_12 MDT_5_12 1
    MARKER 'MARKER' 'INTEND'
    V_5_12 OBJ 25163.622
    V_5_12 SU_5_12 1
    V_5_12 RU_5_12 -195.42811
    V_5_12 MUT_5_12 1
    V_5_12 MUT_5_13 1
    V_5_12 MUT_5_14 1
    V_5_12 MUT_5_15 1
    V_5_12 MUT_5_16 1
    W_5_12 SU_5_12 -1
    W_5_12 RD_5_12 -400
    W_5_12 MDT_5_12 1
    W_5_12 MDT_5_13 1
    P_5_12 OBJ 22.253309
    P_5_12 DEM_12 1
    P_5_12 PMAX_5_12 1
    P_5_12 PMIN_5_12 1
    P_5_12 RU_5_12 1
    P_5_12 RD_5_12 -1
    P_5_12 RU_5_13 -1
    P_5_12 RD_5_13 1
    MARKER 'MARKER' 'INTORG'
    U_6_12 OBJ 309.26589
    U_6_12 RES_12 150
    U_6_12 PMAX_6_12 -150
    U_6_12 PMIN_6_12 -52.537848
    U_6_12 SU_6_12 -1
    U_6_12 SU_6_13 1
    U_6_12 RU_6_13 -98.982035
    U_6_12 RD_6_12 -98.982035
    U_6_12 MUT_6_12 -1
    U_6_12 MDT_6_12 1
    MARKER 'MARKER' 'INTEND'
    V_6_12 OBJ 10945.658
    V_6_12 SU_6_12 1
    V_6_12 RU_6_12 -52.537848
    V_6_12 MUT_6_12 1
    V_6_12 MUT_6_13 1
    V_6_12 MUT_6_14 1
    V_6_12 MUT_6_15 1
    W_6_12 SU_6_12 -1
    W_6_12 RD_6_12 -150
    W_6_12 MDT_6_12 1
    W_6_12 MDT_6_13 1
    W_6_12 MDT_6_14 1
    P_6_12 OBJ 52.418602
    P_6_12 DEM_12 1
    P_6_12 PMAX_6_12 1
    P_6_12 PMIN_6_12 1
    P_6_12 RU_6_12 1
    P_6_12 RD_6_12 -1
    P_6_12 RU_6_13 -1
    P_6_12 RD_6_13 1
    MARKER 'MARKER' 'INTORG'
    U_7_12 OBJ 333.08661
    U_7_12 RES_12 200
    U_7_12 PMAX_7_12 -200
    U_7_12 PMIN_7_12 -83.426377
    U_7_12 SU_7_12 -1
    U_7_12 SU_7_13 1
    U_7_12 RU_7_13 -115.96573
    U_7_12 RD_7_12 -115.96573
    U_7_12 MUT_7_12 -1
    U_7_12 MDT_7_12 1
    MARKER 'MARKER' 'INTEND'
    V_7_12 OBJ 7896.0069
    V_7_12 SU_7_12 1
    V_7_12 RU_7_12 -83.426377
    V_7_12 MUT_7_12 1
    V_7_12 MUT_7_13 1
    W_7_12 SU_7_12 -1
    W_7_12 RD_7_12 -200
    W_7_12 MDT_7_12 1
    W_7_12 MDT_7_13 1
    W_7_12 MDT_7_14 1
    P_7_12 OBJ 36.897385
    P_7_12 DEM_12 1
    P_7_12 PMAX_7_12 1
    P_7_12 PMIN_7_12 1
    P_7_12 RU_7_12 1
    P_7_12 RD_7_12 -1
    P_7_12 RU_7_13 -1
    P_7_12 RD_7_13 1
    MARKER 'MARKER' 'INTORG'
    U_8_12 OBJ 467.79261
    U_8_12 RES_12 150
    U_8_12 PMAX_8_12 -150
    U_8_12 PMIN_8_12 -43.930341
    U_8_12 SU_8_12 -1
    U_8_12 SU_8_13 1
    U_8_12 RU_8_13 -76.064865
    U_8_12 RD_8_12 -76.064865
    U_8_12 MUT_8_12 -1
    U_8_12 MDT_8_12 1
    MARKER 'MARKER' 'INTEND'
    V_8_12 OBJ 7538.2394
    V_8_12 SU_8_12 1
    V_8_12 RU_8_12 -43.930341
    V_8_12 MUT_8_12 1
    V_8_12 MUT_8_13 1
    V_8_12 MUT_8_14 1
    V_8_12 MUT_8_15 1
    V_8_12 MUT_8_16 1
    W_8_12 SU_8_12 -1
    W_8_12 RD_8_12 -150
    W_8_12 MDT_8_12 1
    W_8_12 MDT_8_13 1
    W_8_12 MDT_8_14 1
    W_8_12 MDT_8_15 1
    P_8_12 OBJ 58.081277
    P_8_12 DEM_12 1
    P_8_12 PMAX_8_12 1
    P_8_12 PMIN_8_12 1
    P_8_12 RU_8_12 1
    P_8_12 RD_8_12 -1
    P_8_12 RU_8_13 -1
    P_8_12 RD_8_13 1
    MARKER 'MARKER' 'INTORG'
    U_9_12 OBJ 244.21564
    U_9_12 RES_12 80
    U_9_12 PMAX_9_12 -80
    U_9_12 PMIN_9_12 -27.733755
    U_9_12 SU_9_12 -1
    U_9_12 SU_9_13 1
    U_9_12 RU_9_13 -49.096955
    U_9_12 RD_9_12 -49.096955
    U_9_12 MUT_9_12 -1
    U_9_12 MDT_9_12 1
    MARKER 'MARKER' 'INTEND'
    V_9_12 OBJ 5833.9338
    V_9_12 SU_9_12 1
    V_9_12 RU_9_12 -27.733755
    V_9_12 MUT_9_12 1
    V_9_12 MUT_9_13 1
    V_9_12 MUT_9_14 1
    W_9_12 SU_9_12 -1
    W_9_12 RD_9_12 -80
    W_9_12 MDT_9_12 1
    P_9_12 OBJ 40.945998
    P_9_12 DEM_12 1
    P_9_12 PMAX_9_12 1
    P_9_12 PMIN_9_12 1
    P_9_12 RU_9_12 1
    P_9_12 RD_9_12 -1
    P_9_12 RU_9_13 -1
    P_9_12 RD_9_13 1
    MARKER 'MARKER' 'INTORG'
    U_10_12 OBJ 217.85959
    U_10_12 RES_12 80
    U_10_12 PMAX_10_12 -80
    U_10_12 PMIN_10_12 -39.929646
    U_10_12 SU_10_12 -1
    U_10_12 SU_10_13 1
    U_10_12 RU_10_13 -42.93441
    U_10_12 RD_10_12 -42.93441
    U_10_12 MUT_10_12 -1
    U_10_12 MDT_10_12 1
    MARKER 'MARKER' 'INTEND'
    V_10_12 OBJ 1834.7686
    V_10_12 SU_10_12 1
    V_10_12 RU_10_12 -39.929646
    V_10_12 MUT_10_12 1
    W_10_12 SU_10_12 -1
    W_10_12 RD_10_12 -80
    W_10_12 MDT_10_12 1
    W_10_12 MDT_10_13 1
    P_10_12 OBJ 25.71018
    P_10_12 DEM_12 1
    P_10_12 PMAX_10_12 1
    P_10_12 PMIN_10_12 1
    P_10_12 RU_10_12 1
    P_10_12 RD_10_12 -1
    P_10_12 RU_10_13 -1
    P_10_12 RD_10_13 1
    MARKER 'MARKER' 'INTORG'
    U_11_12 OBJ 94.492357
    U_11_12 RES_12 80
    U_11_12 PMAX_11_12 -80
    U_11_12 PMIN_11_12 -35.79394
    U_11_12 SU_11_12 -1
    U_11_12 SU_11_13 1
    U_11_12 RU_11_13 -48.30109
    U_11_12 RD_11_12 -48.30109
    U_11_12 MUT_11_12 -1
    U_11_12 MDT_11_12 1
    MARKER 'MARKER' 'INTEND'
    V_11_12 OBJ 5910.2458
    V_11_12 SU_11_12 1
    V_11_12 RU_11_12 -35.79394
    V_11_12 MUT_11_12 1
    W_11_12 SU_11_12 -1
    W_11_12 RD_11_12 -80
    W_11_12 MDT_11_12 1
    W_11_12 MDT_11_13 1
    W_11_12 MDT_11_14 1
    P_11_12 OBJ 74.699486
    P_11_12 DEM_12 1
    P_11_12 PMAX_11_12 1
    P_11_12 PMIN_11_12 1
    P_11_12 RU_11_12 1
    P_11_12 RD_11_12 -1
    P_11_12 RU_11_13 -1
    P_11_12 RD_11_13 1
    SHED_12 OBJ 1000
    SHED_12 DEM_12 1
    SHED_12 RES_12 1.1
    MARKER 'MARKER' 'INTORG'
    U_0_13 OBJ 501.84639
    U_0_13 RES_13 400
    U_0_13 PMAX_0_13 -400
    U_0_13 PMIN_0_13 -193.7393
    U_0_13 SU_0_13 -1
    U_0_13 SU_0_14 1
    U_0_13 RU_0_14 -237.7552
    U_0_13 RD_0_13 -237.7552
    U_0_13 MUT_0_13 -1
    U_0_13 MDT_0_13 1
    MARKER 'MARKER' 'INTEND'
    V_0_13 OBJ 28051.973
    V_0_13 SU_0_13 1
    V_0_13 RU_0_13 -193.7393
    V_0_13 MUT_0_13 1
    V_0_13 MUT_0_14 1
    V_0_13 MUT_0_15 1
    W_0_13 SU_0_13 -1
    W_0_13 RD_0_13 -400
    W_0_13 MDT_0_13 1
    W_0_13 MDT_0_14 1
    W_0_13 MDT_0_15 1
    P_0_13 OBJ 17.544812
    P_0_13 DEM_13 1
    P_0_13 PMAX_0_13 1
    P_0_13 PMIN_0_13 1
    P_0_13 RU_0_13 1
    P_0_13 RD_0_13 -1
    P_0_13 RU_0_14 -1
    P_0_13 RD_0_14 1
    MARKER 'MARKER' 'INTORG'
    U_1_13 OBJ 799.83128
    U_1_13 RES_13 200
    U_1_13 PMAX_1_13 -200
    U_1_13 PMIN_1_13 -42.144067
    U_1_13 SU_1_13 -1
    U_1_13 SU_1_14 1
    U_1_13 RU_1_14 -124.29356
    U_1_13 RD_1_13 -124.29356
    U_1_13 MUT_1_13 -1
    U_1_13 MDT_1_13 1
    MARKER 'MARKER' 'INTEND'
    V_1_13 OBJ 11661.656
    V_1_13 SU_1_13 1
    V_1_13 RU_1_13 -42.144067
    V_1_13 MUT_1_13 1
    V_1_13 MUT_1_14 1
    V_1_13 MUT_1_15 1
    V_1_13 MUT_1_16 1
    V_1_13 MUT_1_17 1
    W_1_13 SU_1_13 -1
    W_1_13 RD_1_13 -200
    W_1_13 MDT_1_13 1
    W_1_13 MDT_1_14 1
    W_1_13 MDT_1_15 1
    P_1_13 OBJ 45.656078
    P_1_13 DEM_13 1
    P_1_13 PMAX_1_13 1
    P_1_13 PMIN_1_13 1
    P_1_13 RU_1_13 1
    P_1_13 RD_1_13 -1
    P_1_13 RU_1_14 -1
    P_1_13 RD_1_14 1
    MARKER 'MARKER' 'INTORG'
    U_2_13 OBJ 541.96484
    U_2_13 RES_13 150
    U_2_13 PMAX_2_13 -150
    U_2_13 PMIN_2_13 -52.593028
    U_2_13 SU_2_13 -1
    U_2_13 SU_2_14 1
    U_2_13 RU_2_14 -100.91079
    U_2_13 RD_2_13 -100.91079
    U_2_13 MUT_2_13 -1
    U_2_13 MDT_2_13 1
    MARKER 'MARKER' 'INTEND'
    V_2_13 OBJ 6276.1299
    V_2_13 SU_2_13 1
    V_2_13 RU_2_13 -52.593028
    V_2_13 MUT_2_13 1
    V_2_13 MUT_2_14 1
    V_2_13 MUT_2_15 1
    V_2_13 MUT_2_16 1
    W_2_13 SU_2_13 -1
    W_2_13 RD_2_13 -150
    W_2_13 MDT_2_13 1
    W_2_13 MDT_2_14 1
    W_2_13 MDT_2_15 1
    W_2_13 MDT_2_16 1
    P_2_13 OBJ 55.554351
    P_2_13 DEM_13 1
    P_2_13 PMAX_2_13 1
    P_2_13 PMIN_2_13 1
    P_2_13 RU_2_13 1
    P_2_13 RD_2_13 -1
    P_2_13 RU_2_14 -1
    P_2_13 RD_2_14 1
    MARKER 'MARKER' 'INTORG'
    U_3_13 OBJ 338.3616
    U_3_13 RES_13 200
    U_3_13 PMAX_3_13 -200
    U_3_13 PMIN_3_13 -49.869305
    U_3_13 SU_3_13 -1
    U_3_13 SU_3_14 1
    U_3_13 RU_3_14 -73.8871
    U_3_13 RD_3_13 -73.8871
    U_3_13 MUT_3_13 -1
    U_3_13 MDT_3_13 1
    MARKER 'MARKER' 'INTEND'
    V_3_13 OBJ 6120.6398
    V_3_13 SU_3_13 1
    V_3_13 RU_3_13 -49.869305
    V_3_13 MUT_3_13 1
    V_3_13 MUT_3_14 1
    V_3_13 MUT_3_15 1
    V_3_13 MUT_3_16 1
    V_3_13 MUT_3_17 1
    W_3_13 SU_3_13 -1
    W_3_13 RD_3_13 -200
    W_3_13 MDT_3_13 1
    W_3_13 MDT_3_14 1
    W_3_13 MDT_3_15 1
    P_3_13 OBJ 22.98464
    P_3_13 DEM_13 1
    P_3_13 PMAX_3_13 1
    P_3_13 PMIN_3_13 1
    P_3_13 RU_3_13 1
    P_3_13 RD_3_13 -1
    P_3_13 RU_3_14 -1
    P_3_13 RD_3_14 1
    MARKER 'MARKER' 'INTORG'
    U_4_13 OBJ 701.07385
    U_4_13 RES_13 300
    U_4_13 PMAX_4_13 -300
    U_4_13 PMIN_4_13 -110.39013
    U_4_13 SU_4_13 -1
    U_4_13 SU_4_14 1
    U_4_13 RU_4_14 -153.04389
    U_4_13 RD_4_13 -153.04389
    U_4_13 MUT_4_13 -1
    U_4_13 MDT_4_13 1
    MARKER 'MARKER' 'INTEND'
    V_4_13 OBJ 13464.078
    V_4_13 SU_4_13 1
    V_4_13 RU_4_13 -110.39013
    V_4_13 MUT_4_13 1
    V_4_13 MUT_4_14 1
    V_4_13 MUT_4_15 1
    W_4_13 SU_4_13 -1
    W_4_13 RD_4_13 -300
    W_4_13 MDT_4_13 1
    W_4_13 MDT_4_14 1
    W_4_13 MDT_4_15 1
    P_4_13 OBJ 59.782995
    P_4_13 DEM_13 1
    P_4_13 PMAX_4_13 1
    P_4_13 PMIN_4_13 1
    P_4_13 RU_4_13 1
    P_4_13 RD_4_13 -1
    P_4_13 RU_4_14 -1
    P_4_13 RD_4_14 1
    MARKER 'MARKER' 'INTORG'
    U_5_13 OBJ 1304.8049
    U_5_13 RES_13 400
    U_5_13 PMAX_5_13 -400
    U_5_13 PMIN_5_13 -195.42811
    U_5_13 SU_5_13 -1
    U_5_13 SU_5_14 1
    U_5_13 RU_5_14 -193.82507
    U_5_13 RD_5_13 -193.82507
    U_5_13 MUT_5_13 -1
    U_5_13 MDT_5_13 1
    MARKER 'MARKER' 'INTEND'
    V_5_13 OBJ 25163.622
    V_5_13 SU_5_13 1
    V_5_13 RU_5_13 -195.42811
    V_5_13 MUT_5_13 1
    V_5_13 MUT_5_14 1
    V_5_13 MUT_5_15 1
    V_5_13 MUT_5_16 1
    V_5_13 MUT_5_17 1
    W_5_13 SU_5_13 -1
    W_5_13 RD_5_13 -400
    W_5_13 MDT_5_13 1
    W_5_13 MDT_5_14 1
    P_5_13 OBJ 22.253309
    P_5_13 DEM_13 1
    P_5_13 PMAX_5_13 1
    P_5_13 PMIN_5_13 1
    P_5_13 RU_5_13 1
    P_5_13 RD_5_13 -1
    P_5_13 RU_5_14 -1
    P_5_13 RD_5_14 1
    MARKER 'MARKER' 'INTORG'
    U_6_13 OBJ 309.26589
    U_6_13 RES_13 150
    U_6_13 PMAX_6_13 -150
    U_6_13 PMIN_6_13 -52.537848
    U_6_13 SU_6_13 -1
    U_6_13 SU_6_14 1
    U_6_13 RU_6_14 -98.982035
    U_6_13 RD_6_13 -98.982035
    U_6_13 MUT_6_13 -1
    U_6_13 MDT_6_13 1
    MARKER 'MARKER' 'INTEND'
    V_6_13 OBJ 10945.658
    V_6_13 SU_6_13 1
    V_6_13 RU_6_13 -52.537848
    V_6_13 MUT_6_13 1
    V_6_13 MUT_6_14 1
    V_6_13 MUT_6_15 1
    V_6_13 MUT_6_16 1
    W_6_13 SU_6_13 -1
    W_6_13 RD_6_13 -150
    W_6_13 MDT_6_13 1
    W_6_13 MDT_6_14 1
    W_6_13 MDT_6_15 1
    P_6_13 OBJ 52.418602
    P_6_13 DEM_13 1
    P_6_13 PMAX_6_13 1
    P_6_13 PMIN_6_13 1
    P_6_13 RU_6_13 1
    P_6_13 RD_6_13 -1
    P_6_13 RU_6_14 -1
    P_6_13 RD_6_14 1
    MARKER 'MARKER' 'INTORG'
    U_7_13 OBJ 333.08661
    U_7_13 RES_13 200
    U_7_13 PMAX_7_13 -200
    U_7_13 PMIN_7_13 -83.426377
    U_7_13 SU_7_13 -1
    U_7_13 SU_7_14 1
    U_7_13 RU_7_14 -115.96573
    U_7_13 RD_7_13 -115.96573
    U_7_13 MUT_7_13 -1
    U_7_13 MDT_7_13 1
    MARKER 'MARKER' 'INTEND'
    V_7_13 OBJ 7896.0069
    V_7_13 SU_7_13 1
    V_7_13 RU_7_13 -83.426377
    V_7_13 MUT_7_13 1
    V_7_13 MUT_7_14 1
    W_7_13 SU_7_13 -1
    W_7_13 RD_7_13 -200
    W_7_13 MDT_7_13 1
    W_7_13 MDT_7_14 1
    W_7_13 MDT_7_15 1
    P_7_13 OBJ 36.897385
    P_7_13 DEM_13 1
    P_7_13 PMAX_7_13 1
    P_7_13 PMIN_7_13 1
    P_7_13 RU_7_13 1
    P_7_13 RD_7_13 -1
    P_7_13 RU_7_14 -1
    P_7_13 RD_7_14 1
    MARKER 'MARKER' 'INTORG'
    U_8_13 OBJ 467.79261
    U_8_13 RES_13 150
    U_8_13 PMAX_8_13 -150
    U_8_13 PMIN_8_13 -43.930341
    U_8_13 SU_8_13 -1
    U_8_13 SU_8_14 1
    U_8_13 RU_8_14 -76.064865
    U_8_13 RD_8_13 -76.064865
    U_8_13 MUT_8_13 -1
    U_8_13 MDT_8_13 1
    MARKER 'MARKER' 'INTEND'
    V_8_13 OBJ 7538.2394
    V_8_13 SU_8_13 1
    V_8_13 RU_8_13 -43.930341
    V_8_13 MUT_8_13 1
    V_8_13 MUT_8_14 1
    V_8_13 MUT_8_15 1
    V_8_13 MUT_8_16 1
    V_8_13 MUT_8_17 1
    W_8_13 SU_8_13 -1
    W_8_13 RD_8_13 -150
    W_8_13 MDT_8_13 1
    W_8_13 MDT_8_14 1
    W_8_13 MDT_8_15 1
    W_8_13 MDT_8_16 1
    P_8_13 OBJ 58.081277
    P_8_13 DEM_13 1
    P_8_13 PMAX_8_13 1
    P_8_13 PMIN_8_13 1
    P_8_13 RU_8_13 1
    P_8_13 RD_8_13 -1
    P_8_13 RU_8_14 -1
    P_8_13 RD_8_14 1
    MARKER 'MARKER' 'INTORG'
    U_9_13 OBJ 244.21564
    U_9_13 RES_13 80
    U_9_13 PMAX_9_13 -80
    U_9_13 PMIN_9_13 -27.733755
    U_9_13 SU_9_13 -1
    U_9_13 SU_9_14 1
    U_9_13 RU_9_14 -49.096955
    U_9_13 RD_9_13 -49.096955
    U_9_13 MUT_9_13 -1
    U_9_13 MDT_9_13 1
    MARKER 'MARKER' 'INTEND'
    V_9_13 OBJ 5833.9338
    V_9_13 SU_9_13 1
    V_9_13 RU_9_13 -27.733755
    V_9_13 MUT_9_13 1
    V_9_13 MUT_9_14 1
    V_9_13 MUT_9_15 1
    W_9_13 SU_9_13 -1
    W_9_13 RD_9_13 -80
    W_9_13 MDT_9_13 1
    P_9_13 OBJ 40.945998
    P_9_13 DEM_13 1
    P_9_13 PMAX_9_13 1
    P_9_13 PMIN_9_13 1
    P_9_13 RU_9_13 1
    P_9_13 RD_9_13 -1
    P_9_13 RU_9_14 -1
    P_9_13 RD_9_14 1
    MARKER 'MARKER' 'INTORG'
    U_10_13 OBJ 217.85959
    U_10_13 RES_13 80
    U_10_13 PMAX_10_13 -80
    U_10_13 PMIN_10_13 -39.929646
    U_10_13 SU_10_13 -1
    U_10_13 SU_10_14 1
    U_10_13 RU_10_14 -42.93441
    U_10_13 RD_10_13 -42.93441
    U_10_13 MUT_10_13 -1
    U_10_13 MDT_10_13 1
    MARKER 'MARKER' 'INTEND'
    V_10_13 OBJ 1834.7686
    V_10_13 SU_10_13 1
    V_10_13 RU_10_13 -39.929646
    V_10_13 MUT_10_13 1
    W_10_13 SU_10_13 -1
    W_10_13 RD_10_13 -80
    W_10_13 MDT_10_13 1
    W_10_13 MDT_10_14 1
    P_10_13 OBJ 25.71018
    P_10_13 DEM_13 1
    P_10_13 PMAX_10_13 1
    P_10_13 PMIN_10_13 1
    P_10_13 RU_10_13 1
    P_10_13 RD_10_13 -1
    P_10_13 RU_10_14 -1
    P_10_13 RD_10_14 1
    MARKER 'MARKER' 'INTORG'
    U_11_13 OBJ 94.492357
    U_11_13 RES_13 80
    U_11_13 PMAX_11_13 -80
    U_11_13 PMIN_11_13 -35.79394
    U_11_13 SU_11_13 -1
    U_11_13 SU_11_14 1
    U_11_13 RU_11_14 -48.30109
    U_11_13 RD_11_13 -48.30109
    U_11_13 MUT_11_13 -1
    U_11_13 MDT_11_13 1
    MARKER 'MARKER' 'INTEND'
    V_11_13 OBJ 5910.2458
    V_11_13 SU_11_13 1
    V_11_13 RU_11_13 -35.79394
    V_11_13 MUT_11_13 1
    W_11_13 SU_11_13 -1
    W_11_13 RD_11_13 -80
    W_11_13 MDT_11_13 1
    W_11_13 MDT_11_14 1
    W_11_13 MDT_11_15 1
    P_11_13 OBJ 74.699486
    P_11_13 DEM_13 1
    P_11_13 PMAX_11_13 1
    P_11_13 PMIN_11_13 1
    P_11_13 RU_11_13 1
    P_11_13 RD_11_13 -1
    P_11_13 RU_11_14 -1
    P_11_13 RD_11_14 1
    SHED_13 OBJ 1000
    SHED_13 DEM_13 1
    SHED_13 RES_13 1.1
    MARKER 'MARKER' 'INTORG'
    U_0_14 OBJ 501.84639
    U_0_14 RES_14 400
    U_0_14 PMAX_0_14 -400
    U_0_14 PMIN_0_14 -193.7393
    U_0_14 SU_0_14 -1
    U_0_14 SU_0_15 1
    U_0_14 RU_0_15 -237.7552
    U_0_14 RD_0_14 -237.7552
    U_0_14 MUT_0_14 -1
    U_0_14 MDT_0_14 1
    MARKER 'MARKER' 'INTEND'
    V_0_14 OBJ 28051.973
    V_0_14 SU_0_14 1
    V_0_14 RU_0_14 -193.7393
    V_0_14 MUT_0_14 1
    V_0_14 MUT_0_15 1
    V_0_14 MUT_0_16 1
    W_0_14 SU_0_14 -1
    W_0_14 RD_0_14 -400
    W_0_14 MDT_0_14 1
    W_0_14 MDT_0_15 1
    W_0_14 MDT_0_16 1
    P_0_14 OBJ 17.544812
    P_0_14 DEM_14 1
    P_0_14 PMAX_0_14 1
    P_0_14 PMIN_0_14 1
    P_0_14 RU_0_14 1
    P_0_14 RD_0_14 -1
    P_0_14 RU_0_15 -1
    P_0_14 RD_0_15 1
    MARKER 'MARKER' 'INTORG'
    U_1_14 OBJ 799.83128
    U_1_14 RES_14 200
    U_1_14 PMAX_1_14 -200
    U_1_14 PMIN_1_14 -42.144067
    U_1_14 SU_1_14 -1
    U_1_14 SU_1_15 1
    U_1_14 RU_1_15 -124.29356
    U_1_14 RD_1_14 -124.29356
    U_1_14 MUT_1_14 -1
    U_1_14 MDT_1_14 1
    MARKER 'MARKER' 'INTEND'
    V_1_14 OBJ 11661.656
    V_1_14 SU_1_14 1
    V_1_14 RU_1_14 -42.144067
    V_1_14 MUT_1_14 1
    V_1_14 MUT_1_15 1
    V_1_14 MUT_1_16 1
    V_1_14 MUT_1_17 1
    V_1_14 MUT_1_18 1
    W_1_14 SU_1_14 -1
    W_1_14 RD_1_14 -200
    W_1_14 MDT_1_14 1
    W_1_14 MDT_1_15 1
    W_1_14 MDT_1_16 1
    P_1_14 OBJ 45.656078
    P_1_14 DEM_14 1
    P_1_14 PMAX_1_14 1
    P_1_14 PMIN_1_14 1
    P_1_14 RU_1_14 1
    P_1_14 RD_1_14 -1
    P_1_14 RU_1_15 -1
    P_1_14 RD_1_15 1
    MARKER 'MARKER' 'INTORG'
    U_2_14 OBJ 541.96484
    U_2_14 RES_14 150
    U_2_14 PMAX_2_14 -150
    U_2_14 PMIN_2_14 -52.593028
    U_2_14 SU_2_14 -1
    U_2_14 SU_2_15 1
    U_2_14 RU_2_15 -100.91079
    U_2_14 RD_2_14 -100.91079
    U_2_14 MUT_2_14 -1
    U_2_14 MDT_2_14 1
    MARKER 'MARKER' 'INTEND'
    V_2_14 OBJ 6276.1299
    V_2_14 SU_2_14 1
    V_2_14 RU_2_14 -52.593028
    V_2_14 MUT_2_14 1
    V_2_14 MUT_2_15 1
    V_2_14 MUT_2_16 1
    V_2_14 MUT_2_17 1
    W_2_14 SU_2_14 -1
    W_2_14 RD_2_14 -150
    W_2_14 MDT_2_14 1
    W_2_14 MDT_2_15 1
    W_2_14 MDT_2_16 1
    W_2_14 MDT_2_17 1
    P_2_14 OBJ 55.554351
    P_2_14 DEM_14 1
    P_2_14 PMAX_2_14 1
    P_2_14 PMIN_2_14 1
    P_2_14 RU_2_14 1
    P_2_14 RD_2_14 -1
    P_2_14 RU_2_15 -1
    P_2_14 RD_2_15 1
    MARKER 'MARKER' 'INTORG'
    U_3_14 OBJ 338.3616
    U_3_14 RES_14 200
    U_3_14 PMAX_3_14 -200
    U_3_14 PMIN_3_14 -49.869305
    U_3_14 SU_3_14 -1
    U_3_14 SU_3_15 1
    U_3_14 RU_3_15 -73.8871
    U_3_14 RD_3_14 -73.8871
    U_3_14 MUT_3_14 -1
    U_3_14 MDT_3_14 1
    MARKER 'MARKER' 'INTEND'
    V_3_14 OBJ 6120.6398
    V_3_14 SU_3_14 1
    V_3_14 RU_3_14 -49.869305
    V_3_14 MUT_3_14 1
    V_3_14 MUT_3_15 1
    V_3_14 MUT_3_16 1
    V_3_14 MUT_3_17 1
    V_3_14 MUT_3_18 1
    W_3_14 SU_3_14 -1
    W_3_14 RD_3_14 -200
    W_3_14 MDT_3_14 1
    W_3_14 MDT_3_15 1
    W_3_14 MDT_3_16 1
    P_3_14 OBJ 22.98464
    P_3_14 DEM_14 1
    P_3_14 PMAX_3_14 1
    P_3_14 PMIN_3_14 1
    P_3_14 RU_3_14 1
    P_3_14 RD_3_14 -1
    P_3_14 RU_3_15 -1
    P_3_14 RD_3_15 1
    MARKER 'MARKER' 'INTORG'
    U_4_14 OBJ 701.07385
    U_4_14 RES_14 300
    U_4_14 PMAX_4_14 -300
    U_4_14 PMIN_4_14 -110.39013
    U_4_14 SU_4_14 -1
    U_4_14 SU_4_15 1
    U_4_14 RU_4_15 -153.04389
    U_4_14 RD_4_14 -153.04389
    U_4_14 MUT_4_14 -1
    U_4_14 MDT_4_14 1
    MARKER 'MARKER' 'INTEND'
    V_4_14 OBJ 13464.078
    V_4_14 SU_4_14 1
    V_4_14 RU_4_14 -110.39013
    V_4_14 MUT_4_14 1
    V_4_14 MUT_4_15 1
    V_4_14 MUT_4_16 1
    W_4_14 SU_4_14 -1
    W_4_14 RD_4_14 -300
    W_4_14 MDT_4_14 1
    W_4_14 MDT_4_15 1
    W_4_14 MDT_4_16 1
    P_4_14 OBJ 59.782995
    P_4_14 DEM_14 1
    P_4_14 PMAX_4_14 1
    P_4_14 PMIN_4_14 1
    P_4_14 RU_4_14 1
    P_4_14 RD_4_14 -1
    P_4_14 RU_4_15 -1
    P_4_14 RD_4_15 1
    MARKER 'MARKER' 'INTORG'
    U_5_14 OBJ 1304.8049
    U_5_14 RES_14 400
    U_5_14 PMAX_5_14 -400
    U_5_14 PMIN_5_14 -195.42811
    U_5_14 SU_5_14 -1
    U_5_14 SU_5_15 1
    U_5_14 RU_5_15 -193.82507
    U_5_14 RD_5_14 -193.82507
    U_5_14 MUT_5_14 -1
    U_5_14 MDT_5_14 1
    MARKER 'MARKER' 'INTEND'
    V_5_14 OBJ 25163.622
    V_5_14 SU_5_14 1
    V_5_14 RU_5_14 -195.42811
    V_5_14 MUT_5_14 1
    V_5_14 MUT_5_15 1
    V_5_14 MUT_5_16 1
    V_5_14 MUT_5_17 1
    V_5_14 MUT_5_18 1
    W_5_14 SU_5_14 -1
    W_5_14 RD_5_14 -400
    W_5_14 MDT_5_14 1
    W_5_14 MDT_5_15 1
    P_5_14 OBJ 22.253309
    P_5_14 DEM_14 1
    P_5_14 PMAX_5_14 1
    P_5_14 PMIN_5_14 1
    P_5_14 RU_5_14 1
    P_5_14 RD_5_14 -1
    P_5_14 RU_5_15 -1
    P_5_14 RD_5_15 1
    MARKER 'MARKER' 'INTORG'
    U_6_14 OBJ 309.26589
    U_6_14 RES_14 150
    U_6_14 PMAX_6_14 -150
    U_6_14 PMIN_6_14 -52.537848
    U_6_14 SU_6_14 -1
    U_6_14 SU_6_15 1
    U_6_14 RU_6_15 -98.982035
    U_6_14 RD_6_14 -98.982035
    U_6_14 MUT_6_14 -1
    U_6_14 MDT_6_14 1
    MARKER 'MARKER' 'INTEND'
    V_6_14 OBJ 10945.658
    V_6_14 SU_6_14 1
    V_6_14 RU_6_14 -52.537848
    V_6_14 MUT_6_14 1
    V_6_14 MUT_6_15 1
    V_6_14 MUT_6_16 1
    V_6_14 MUT_6_17 1
    W_6_14 SU_6_14 -1
    W_6_14 RD_6_14 -150
    W_6_14 MDT_6_14 1
    W_6_14 MDT_6_15 1
    W_6_14 MDT_6_16 1
    P_6_14 OBJ 52.418602
    P_6_14 DEM_14 1
    P_6_14 PMAX_6_14 1
    P_6_14 PMIN_6_14 1
    P_6_14 RU_6_14 1
    P_6_14 RD_6_14 -1
    P_6_14 RU_6_15 -1
    P_6_14 RD_6_15 1
    MARKER 'MARKER' 'INTORG'
    U_7_14 OBJ 333.08661
    U_7_14 RES_14 200
    U_7_14 PMAX_7_14 -200
    U_7_14 PMIN_7_14 -83.426377
    U_7_14 SU_7_14 -1
    U_7_14 SU_7_15 1
    U_7_14 RU_7_15 -115.96573
    U_7_14 RD_7_14 -115.96573
    U_7_14 MUT_7_14 -1
    U_7_14 MDT_7_14 1
    MARKER 'MARKER' 'INTEND'
    V_7_14 OBJ 7896.0069
    V_7_14 SU_7_14 1
    V_7_14 RU_7_14 -83.426377
    V_7_14 MUT_7_14 1
    V_7_14 MUT_7_15 1
    W_7_14 SU_7_14 -1
    W_7_14 RD_7_14 -200
    W_7_14 MDT_7_14 1
    W_7_14 MDT_7_15 1
    W_7_14 MDT_7_16 1
    P_7_14 OBJ 36.897385
    P_7_14 DEM_14 1
    P_7_14 PMAX_7_14 1
    P_7_14 PMIN_7_14 1
    P_7_14 RU_7_14 1
    P_7_14 RD_7_14 -1
    P_7_14 RU_7_15 -1
    P_7_14 RD_7_15 1
    MARKER 'MARKER' 'INTORG'
    U_8_14 OBJ 467.79261
    U_8_14 RES_14 150
    U_8_14 PMAX_8_14 -150
    U_8_14 PMIN_8_14 -43.930341
    U_8_14 SU_8_14 -1
    U_8_14 SU_8_15 1
    U_8_14 RU_8_15 -76.064865
    U_8_14 RD_8_14 -76.064865
    U_8_14 MUT_8_14 -1
    U_8_14 MDT_8_14 1
    MARKER 'MARKER' 'INTEND'
    V_8_14 OBJ 7538.2394
    V_8_14 SU_8_14 1
    V_8_14 RU_8_14 -43.930341
    V_8_14 MUT_8_14 1
    V_8_14 MUT_8_15 1
    V_8_14 MUT_8_16 1
    V_8_14 MUT_8_17 1
    V_8_14 MUT_8_18 1
    W_8_14 SU_8_14 -1
    W_8_14 RD_8_14 -150
    W_8_14 MDT_8_14 1
    W_8_14 MDT_8_15 1
    W_8_14 MDT_8_16 1
    W_8_14 MDT_8_17 1
    P_8_14 OBJ 58.081277
    P_8_14 DEM_14 1
    P_8_14 PMAX_8_14 1
    P_8_14 PMIN_8_14 1
    P_8_14 RU_8_14 1
    P_8_14 RD_8_14 -1
    P_8_14 RU_8_15 -1
    P_8_14 RD_8_15 1
    MARKER 'MARKER' 'INTORG'
    U_9_14 OBJ 244.21564
    U_9_14 RES_14 80
    U_9_14 PMAX_9_14 -80
    U_9_14 PMIN_9_14 -27.733755
    U_9_14 SU_9_14 -1
    U_9_14 SU_9_15 1
    U_9_14 RU_9_15 -49.096955
    U_9_14 RD_9_14 -49.096955
    U_9_14 MUT_9_14 -1
    U_9_14 MDT_9_14 1
    MARKER 'MARKER' 'INTEND'
    V_9_14 OBJ 5833.9338
    V_9_14 SU_9_14 1
    V_9_14 RU_9_14 -27.733755
    V_9_14 MUT_9_14 1
    V_9_14 MUT_9_15 1
    V_9_14 MUT_9_16 1
    W_9_14 SU_9_14 -1
    W_9_14 RD_9_14 -80
    W_9_14 MDT_9_14 1
    P_9_14 OBJ 40.945998
    P_9_14 DEM_14 1
    P_9_14 PMAX_9_14 1
    P_9_14 PMIN_9_14 1
    P_9_14 RU_9_14 1
    P_9_14 RD_9_14 -1
    P_9_14 RU_9_15 -1
    P_9_14 RD_9_15 1
    MARKER 'MARKER' 'INTORG'
    U_10_14 OBJ 217.85959
    U_10_14 RES_14 80
    U_10_14 PMAX_10_14 -80
    U_10_14 PMIN_10_14 -39.929646
    U_10_14 SU_10_14 -1
    U_10_14 SU_10_15 1
    U_10_14 RU_10_15 -42.93441
    U_10_14 RD_10_14 -42.93441
    U_10_14 MUT_10_14 -1
    U_10_14 MDT_10_14 1
    MARKER 'MARKER' 'INTEND'
    V_10_14 OBJ 1834.7686
    V_10_14 SU_10_14 1
    V_10_14 RU_10_14 -39.929646
    V_10_14 MUT_10_14 1
    W_10_14 SU_10_14 -1
    W_10_14 RD_10_14 -80
    W_10_14 MDT_10_14 1
    W_10_14 MDT_10_15 1
    P_10_14 OBJ 25.71018
    P_10_14 DEM_14 1
    P_10_14 PMAX_10_14 1
    P_10_14 PMIN_10_14 1
    P_10_14 RU_10_14 1
    P_10_14 RD_10_14 -1
    P_10_14 RU_10_15 -1
    P_10_14 RD_10_15 1
    MARKER 'MARKER' 'INTORG'
    U_11_14 OBJ 94.492357
    U_11_14 RES_14 80
    U_11_14 PMAX_11_14 -80
    U_11_14 PMIN_11_14 -35.79394
    U_11_14 SU_11_14 -1
    U_11_14 SU_11_15 1
    U_11_14 RU_11_15 -48.30109
    U_11_14 RD_11_14 -48.30109
    U_11_14 MUT_11_14 -1
    U_11_14 MDT_11_14 1
    MARKER 'MARKER' 'INTEND'
    V_11_14 OBJ 5910.2458
    V_11_14 SU_11_14 1
    V_11_14 RU_11_14 -35.79394
    V_11_14 MUT_11_14 1
    W_11_14 SU_11_14 -1
    W_11_14 RD_11_14 -80
    W_11_14 MDT_11_14 1
    W_11_14 MDT_11_15 1
    W_11_14 MDT_11_16 1
    P_11_14 OBJ 74.699486
    P_11_14 DEM_14 1
    P_11_14 PMAX_11_14 1
    P_11_14 PMIN_11_14 1
    P_11_14 RU_11_14 1
    P_11_14 RD_11_14 -1
    P_11_14 RU_11_15 -1
    P_11_14 RD_11_15 1
    SHED_14 OBJ 1000
    SHED_14 DEM_14 1
    SHED_14 RES_14 1.1
    MARKER 'MARKER' 'INTORG'
    U_0_15 OBJ 501.84639
    U_0_15 RES_15 400
    U_0_15 PMAX_0_15 -400
    U_0_15 PMIN_0_15 -193.7393
    U_0_15 SU_0_15 -1
    U_0_15 SU_0_16 1
    U_0_15 RU_0_16 -237.7552
    U_0_15 RD_0_15 -237.7552
    U_0_15 MUT_0_15 -1
    U_0_15 MDT_0_15 1
    MARKER 'MARKER' 'INTEND'
    V_0_15 OBJ 28051.973
    V_0_15 SU_0_15 1
    V_0_15 RU_0_15 -193.7393
    V_0_15 MUT_0_15 1
    V_0_15 MUT_0_16 1
    V_0_15 MUT_0_17 1
    W_0_15 SU_0_15 -1
    W_0_15 RD_0_15 -400
    W_0_15 MDT_0_15 1
    W_0_15 MDT_0_16 1
    W_0_15 MDT_0_17 1
    P_0_15 OBJ 17.544812
    P_0_15 DEM_15 1
    P_0_15 PMAX_0_15 1
    P_0_15 PMIN_0_15 1
    P_0_15 RU_0_15 1
    P_0_15 RD_0_15 -1
    P_0_15 RU_0_16 -1
    P_0_15 RD_0_16 1
    MARKER 'MARKER' 'INTORG'
    U_1_15 OBJ 799.83128
    U_1_15 RES_15 200
    U_1_15 PMAX_1_15 -200
    U_1_15 PMIN_1_15 -42.144067
    U_1_15 SU_1_15 -1
    U_1_15 SU_1_16 1
    U_1_15 RU_1_16 -124.29356
    U_1_15 RD_1_15 -124.29356
    U_1_15 MUT_1_15 -1
    U_1_15 MDT_1_15 1
    MARKER 'MARKER' 'INTEND'
    V_1_15 OBJ 11661.656
    V_1_15 SU_1_15 1
    V_1_15 RU_1_15 -42.144067
    V_1_15 MUT_1_15 1
    V_1_15 MUT_1_16 1
    V_1_15 MUT_1_17 1
    V_1_15 MUT_1_18 1
    V_1_15 MUT_1_19 1
    W_1_15 SU_1_15 -1
    W_1_15 RD_1_15 -200
    W_1_15 MDT_1_15 1
    W_1_15 MDT_1_16 1
    W_1_15 MDT_1_17 1
    P_1_15 OBJ 45.656078
    P_1_15 DEM_15 1
    P_1_15 PMAX_1_15 1
    P_1_15 PMIN_1_15 1
    P_1_15 RU_1_15 1
    P_1_15 RD_1_15 -1
    P_1_15 RU_1_16 -1
    P_1_15 RD_1_16 1
    MARKER 'MARKER' 'INTORG'
    U_2_15 OBJ 541.96484
    U_2_15 RES_15 150
    U_2_15 PMAX_2_15 -150
    U_2_15 PMIN_2_15 -52.593028
    U_2_15 SU_2_15 -1
    U_2_15 SU_2_16 1
    U_2_15 RU_2_16 -100.91079
    U_2_15 RD_2_15 -100.91079
    U_2_15 MUT_2_15 -1
    U_2_15 MDT_2_15 1
    MARKER 'MARKER' 'INTEND'
    V_2_15 OBJ 6276.1299
    V_2_15 SU_2_15 1
    V_2_15 RU_2_15 -52.593028
    V_2_15 MUT_2_15 1
    V_2_15 MUT_2_16 1
    V_2_15 MUT_2_17 1
    V_2_15 MUT_2_18 1
    W_2_15 SU_2_15 -1
    W_2_15 RD_2_15 -150
    W_2_15 MDT_2_15 1
    W_2_15 MDT_2_16 1
    W_2_15 MDT_2_17 1
    W_2_15 MDT_2_18 1
    P_2_15 OBJ 55.554351
    P_2_15 DEM_15 1
    P_2_15 PMAX_2_15 1
    P_2_15 PMIN_2_15 1
    P_2_15 RU_2_15 1
    P_2_15 RD_2_15 -1
    P_2_15 RU_2_16 -1
    P_2_15 RD_2_16 1
    MARKER 'MARKER' 'INTORG'
    U_3_15 OBJ 338.3616
    U_3_15 RES_15 200
    U_3_15 PMAX_3_15 -200
    U_3_15 PMIN_3_15 -49.869305
    U_3_15 SU_3_15 -1
    U_3_15 SU_3_16 1
    U_3_15 RU_3_16 -73.8871
    U_3_15 RD_3_15 -73.8871
    U_3_15 MUT_3_15 -1
    U_3_15 MDT_3_15 1
    MARKER 'MARKER' 'INTEND'
    V_3_15 OBJ 6120.6398
    V_3_15 SU_3_15 1
    V_3_15 RU_3_15 -49.869305
    V_3_15 MUT_3_15 1
    V_3_15 MUT_3_16 1
    V_3_15 MUT_3_17 1
    V_3_15 MUT_3_18 1
    V_3_15 MUT_3_19 1
    W_3_15 SU_3_15 -1
    W_3_15 RD_3_15 -200
    W_3_15 MDT_3_15 1
    W_3_15 MDT_3_16 1
    W_3_15 MDT_3_17 1
    P_3_15 OBJ 22.98464
    P_3_15 DEM_15 1
    P_3_15 PMAX_3_15 1
    P_3_15 PMIN_3_15 1
    P_3_15 RU_3_15 1
    P_3_15 RD_3_15 -1
    P_3_15 RU_3_16 -1
    P_3_15 RD_3_16 1
    MARKER 'MARKER' 'INTORG'
    U_4_15 OBJ 701.07385
    U_4_15 RES_15 300
    U_4_15 PMAX_4_15 -300
    U_4_15 PMIN_4_15 -110.39013
    U_4_15 SU_4_15 -1
    U_4_15 SU_4_16 1
    U_4_15 RU_4_16 -153.04389
    U_4_15 RD_4_15 -153.04389
    U_4_15 MUT_4_15 -1
    U_4_15 MDT_4_15 1
    MARKER 'MARKER' 'INTEND'
    V_4_15 OBJ 13464.078
    V_4_15 SU_4_15 1
    V_4_15 RU_4_15 -110.39013
    V_4_15 MUT_4_15 1
    V_4_15 MUT_4_16 1
    V_4_15 MUT_4_17 1
    W_4_15 SU_4_15 -1
    W_4_15 RD_4_15 -300
    W_4_15 MDT_4_15 1
    W_4_15 MDT_4_16 1
    W_4_15 MDT_4_17 1
    P_4_15 OBJ 59.782995
    P_4_15 DEM_15 1
    P_4_15 PMAX_4_15 1
    P_4_15 PMIN_4_15 1
    P_4_15 RU_4_15 1
    P_4_15 RD_4_15 -1
    P_4_15 RU_4_16 -1
    P_4_15 RD_4_16 1
    MARKER 'MARKER' 'INTORG'
    U_5_15 OBJ 1304.8049
    U_5_15 RES_15 400
    U_5_15 PMAX_5_15 -400
    U_5_15 PMIN_5_15 -195.42811
    U_5_15 SU_5_15 -1
    U_5_15 SU_5_16 1
    U_5_15 RU_5_16 -193.82507
    U_5_15 RD_5_15 -193.82507
    U_5_15 MUT_5_15 -1
    U_5_15 MDT_5_15 1
    MARKER 'MARKER' 'INTEND'
    V_5_15 OBJ 25163.622
    V_5_15 SU_5_15 1
    V_5_15 RU_5_15 -195.42811
    V_5_15 MUT_5_15 1
    V_5_15 MUT_5_16 1
    V_5_15 MUT_5_17 1
    V_5_15 MUT_5_18 1
    V_5_15 MUT_5_19 1
    W_5_15 SU_5_15 -1
    W_5_15 RD_5_15 -400
    W_5_15 MDT_5_15 1
    W_5_15 MDT_5_16 1
    P_5_15 OBJ 22.253309
    P_5_15 DEM_15 1
    P_5_15 PMAX_5_15 1
    P_5_15 PMIN_5_15 1
    P_5_15 RU_5_15 1
    P_5_15 RD_5_15 -1
    P_5_15 RU_5_16 -1
    P_5_15 RD_5_16 1
    MARKER 'MARKER' 'INTORG'
    U_6_15 OBJ 309.26589
    U_6_15 RES_15 150
    U_6_15 PMAX_6_15 -150
    U_6_15 PMIN_6_15 -52.537848
    U_6_15 SU_6_15 -1
    U_6_15 SU_6_16 1
    U_6_15 RU_6_16 -98.982035
    U_6_15 RD_6_15 -98.982035
    U_6_15 MUT_6_15 -1
    U_6_15 MDT_6_15 1
    MARKER 'MARKER' 'INTEND'
    V_6_15 OBJ 10945.658
    V_6_15 SU_6_15 1
    V_6_15 RU_6_15 -52.537848
    V_6_15 MUT_6_15 1
    V_6_15 MUT_6_16 1
    V_6_15 MUT_6_17 1
    V_6_15 MUT_6_18 1
    W_6_15 SU_6_15 -1
    W_6_15 RD_6_15 -150
    W_6_15 MDT_6_15 1
    W_6_15 MDT_6_16 1
    W_6_15 MDT_6_17 1
    P_6_15 OBJ 52.418602
    P_6_15 DEM_15 1
    P_6_15 PMAX_6_15 1
    P_6_15 PMIN_6_15 1
    P_6_15 RU_6_15 1
    P_6_15 RD_6_15 -1
    P_6_15 RU_6_16 -1
    P_6_15 RD_6_16 1
    MARKER 'MARKER' 'INTORG'
    U_7_15 OBJ 333.08661
    U_7_15 RES_15 200
    U_7_15 PMAX_7_15 -200
    U_7_15 PMIN_7_15 -83.426377
    U_7_15 SU_7_15 -1
    U_7_15 SU_7_16 1
    U_7_15 RU_7_16 -115.96573
    U_7_15 RD_7_15 -115.96573
    U_7_15 MUT_7_15 -1
    U_7_15 MDT_7_15 1
    MARKER 'MARKER' 'INTEND'
    V_7_15 OBJ 7896.0069
    V_7_15 SU_7_15 1
    V_7_15 RU_7_15 -83.426377
    V_7_15 MUT_7_15 1
    V_7_15 MUT_7_16 1
    W_7_15 SU_7_15 -1
    W_7_15 RD_7_15 -200
    W_7_15 MDT_7_15 1
    W_7_15 MDT_7_16 1
    W_7_15 MDT_7_17 1
    P_7_15 OBJ 36.897385
    P_7_15 DEM_15 1
    P_7_15 PMAX_7_15 1
    P_7_15 PMIN_7_15 1
    P_7_15 RU_7_15 1
    P_7_15 RD_7_15 -1
    P_7_15 RU_7_16 -1
    P_7_15 RD_7_16 1
    MARKER 'MARKER' 'INTORG'
    U_8_15 OBJ 467.79261
    U_8_15 RES_15 150
    U_8_15 PMAX_8_15 -150
    U_8_15 PMIN_8_15 -43.930341
    U_8_15 SU_8_15 -1
    U_8_15 SU_8_16 1
    U_8_15 RU_8_16 -76.064865
    U_8_15 RD_8_15 -76.064865
    U_8_15 MUT_8_15 -1
    U_8_15 MDT_8_15 1
    MARKER 'MARKER' 'INTEND'
    V_8_15 OBJ 7538.2394
    V_8_15 SU_8_15 1
    V_8_15 RU_8_15 -43.930341
    V_8_15 MUT_8_15 1
    V_8_15 MUT_8_16 1
    V_8_15 MUT_8_17 1
    V_8_15 MUT_8_18 1
    V_8_15 MUT_8_19 1
    W_8_15 SU_8_15 -1
    W_8_15 RD_8_15 -150
    W_8_15 MDT_8_15 1
    W_8_15 MDT_8_16 1
    W_8_15 MDT_8_17 1
    W_8_15 MDT_8_18 1
    P_8_15 OBJ 58.081277
    P_8_15 DEM_15 1
    P_8_15 PMAX_8_15 1
    P_8_15 PMIN_8_15 1
    P_8_15 RU_8_15 1
    P_8_15 RD_8_15 -1
    P_8_15 RU_8_16 -1
    P_8_15 RD_8_16 1
    MARKER 'MARKER' 'INTORG'
    U_9_15 OBJ 244.21564
    U_9_15 RES_15 80
    U_9_15 PMAX_9_15 -80
    U_9_15 PMIN_9_15 -27.733755
    U_9_15 SU_9_15 -1
    U_9_15 SU_9_16 1
    U_9_15 RU_9_16 -49.096955
    U_9_15 RD_9_15 -49.096955
    U_9_15 MUT_9_15 -1
    U_9_15 MDT_9_15 1
    MARKER 'MARKER' 'INTEND'
    V_9_15 OBJ 5833.9338
    V_9_15 SU_9_15 1
    V_9_15 RU_9_15 -27.733755
    V_9_15 MUT_9_15 1
    V_9_15 MUT_9_16 1
    V_9_15 MUT_9_17 1
    W_9_15 SU_9_15 -1
    W_9_15 RD_9_15 -80
    W_9_15 MDT_9_15 1
    P_9_15 OBJ 40.945998
    P_9_15 DEM_15 1
    P_9_15 PMAX_9_15 1
    P_9_15 PMIN_9_15 1
    P_9_15 RU_9_15 1
    P_9_15 RD_9_15 -1
    P_9_15 RU_9_16 -1
    P_9_15 RD_9_16 1
    MARKER 'MARKER' 'INTORG'
    U_10_15 OBJ 217.85959
    U_10_15 RES_15 80
    U_10_15 PMAX_10_15 -80
    U_10_15 PMIN_10_15 -39.929646
    U_10_15 SU_10_15 -1
    U_10_15 SU_10_16 1
    U_10_15 RU_10_16 -42.93441
    U_10_15 RD_10_15 -42.93441
    U_10_15 MUT_10_15 -1
    U_10_15 MDT_10_15 1
    MARKER 'MARKER' 'INTEND'
    V_10_15 OBJ 1834.7686
    V_10_15 SU_10_15 1
    V_10_15 RU_10_15 -39.929646
    V_10_15 MUT_10_15 1
    W_10_15 SU_10_15 -1
    W_10_15 RD_10_15 -80
    W_10_15 MDT_10_15 1
    W_10_15 MDT_10_16 1
    P_10_15 OBJ 25.71018
    P_10_15 DEM_15 1
    P_10_15 PMAX_10_15 1
    P_10_15 PMIN_10_15 1
    P_10_15 RU_10_15 1
    P_10_15 RD_10_15 -1
    P_10_15 RU_10_16 -1
    P_10_15 RD_10_16 1
    MARKER 'MARKER' 'INTORG'
    U_11_15 OBJ 94.492357
    U_11_15 RES_15 80
    U_11_15 PMAX_11_15 -80
    U_11_15 PMIN_11_15 -35.79394
    U_11_15 SU_11_15 -1
    U_11_15 SU_11_16 1
    U_11_15 RU_11_16 -48.30109
    U_11_15 RD_11_15 -48.30109
    U_11_15 MUT_11_15 -1
    U_11_15 MDT_11_15 1
    MARKER 'MARKER' 'INTEND'
    V_11_15 OBJ 5910.2458
    V_11_15 SU_11_15 1
    V_11_15 RU_11_15 -35.79394
    V_11_15 MUT_11_15 1
    W_11_15 SU_11_15 -1
    W_11_15 RD_11_15 -80
    W_11_15 MDT_11_15 1
    W_11_15 MDT_11_16 1
    W_11_15 MDT_11_17 1
    P_11_15 OBJ 74.699486
    P_11_15 DEM_15 1
    P_11_15 PMAX_11_15 1
    P_11_15 PMIN_11_15 1
    P_11_15 RU_11_15 1
    P_11_15 RD_11_15 -1
    P_11_15 RU_11_16 -1
    P_11_15 RD_11_16 1
    SHED_15 OBJ 1000
    SHED_15 DEM_15 1
    SHED_15 RES_15 1.1
    MARKER 'MARKER' 'INTORG'
    U_0_16 OBJ 501.84639
    U_0_16 RES_16 400
    U_0_16 PMAX_0_16 -400
    U_0_16 PMIN_0_16 -193.7393
    U_0_16 SU_0_16 -1
    U_0_16 SU_0_17 1
    U_0_16 RU_0_17 -237.7552
    U_0_16 RD_0_16 -237.7552
    U_0_16 MUT_0_16 -1
    U_0_16 MDT_0_16 1
    MARKER 'MARKER' 'INTEND'
    V_0_16 OBJ 28051.973
    V_0_16 SU_0_16 1
    V_0_16 RU_0_16 -193.7393
    V_0_16 MUT_0_16 1
    V_0_16 MUT_0_17 1
    V_0_16 MUT_0_18 1
    W_0_16 SU_0_16 -1
    W_0_16 RD_0_16 -400
    W_0_16 MDT_0_16 1
    W_0_16 MDT_0_17 1
    W_0_16 MDT_0_18 1
    P_0_16 OBJ 17.544812
    P_0_16 DEM_16 1
    P_0_16 PMAX_0_16 1
    P_0_16 PMIN_0_16 1
    P_0_16 RU_0_16 1
    P_0_16 RD_0_16 -1
    P_0_16 RU_0_17 -1
    P_0_16 RD_0_17 1
    MARKER 'MARKER' 'INTORG'
    U_1_16 OBJ 799.83128
    U_1_16 RES_16 200
    U_1_16 PMAX_1_16 -200
    U_1_16 PMIN_1_16 -42.144067
    U_1_16 SU_1_16 -1
    U_1_16 SU_1_17 1
    U_1_16 RU_1_17 -124.29356
    U_1_16 RD_1_16 -124.29356
    U_1_16 MUT_1_16 -1
    U_1_16 MDT_1_16 1
    MARKER 'MARKER' 'INTEND'
    V_1_16 OBJ 11661.656
    V_1_16 SU_1_16 1
    V_1_16 RU_1_16 -42.144067
    V_1_16 MUT_1_16 1
    V_1_16 MUT_1_17 1
    V_1_16 MUT_1_18 1
    V_1_16 MUT_1_19 1
    V_1_16 MUT_1_20 1
    W_1_16 SU_1_16 -1
    W_1_16 RD_1_16 -200
    W_1_16 MDT_1_16 1
    W_1_16 MDT_1_17 1
    W_1_16 MDT_1_18 1
    P_1_16 OBJ 45.656078
    P_1_16 DEM_16 1
    P_1_16 PMAX_1_16 1
    P_1_16 PMIN_1_16 1
    P_1_16 RU_1_16 1
    P_1_16 RD_1_16 -1
    P_1_16 RU_1_17 -1
    P_1_16 RD_1_17 1
    MARKER 'MARKER' 'INTORG'
    U_2_16 OBJ 541.96484
    U_2_16 RES_16 150
    U_2_16 PMAX_2_16 -150
    U_2_16 PMIN_2_16 -52.593028
    U_2_16 SU_2_16 -1
    U_2_16 SU_2_17 1
    U_2_16 RU_2_17 -100.91079
    U_2_16 RD_2_16 -100.91079
    U_2_16 MUT_2_16 -1
    U_2_16 MDT_2_16 1
    MARKER 'MARKER' 'INTEND'
    V_2_16 OBJ 6276.1299
    V_2_16 SU_2_16 1
    V_2_16 RU_2_16 -52.593028
    V_2_16 MUT_2_16 1
    V_2_16 MUT_2_17 1
    V_2_16 MUT_2_18 1
    V_2_16 MUT_2_19 1
    W_2_16 SU_2_16 -1
    W_2_16 RD_2_16 -150
    W_2_16 MDT_2_16 1
    W_2_16 MDT_2_17 1
    W_2_16 MDT_2_18 1
    W_2_16 MDT_2_19 1
    P_2_16 OBJ 55.554351
    P_2_16 DEM_16 1
    P_2_16 PMAX_2_16 1
    P_2_16 PMIN_2_16 1
    P_2_16 RU_2_16 1
    P_2_16 RD_2_16 -1
    P_2_16 RU_2_17 -1
    P_2_16 RD_2_17 1
    MARKER 'MARKER' 'INTORG'
    U_3_16 OBJ 338.3616
    U_3_16 RES_16 200
    U_3_16 PMAX_3_16 -200
    U_3_16 PMIN_3_16 -49.869305
    U_3_16 SU_3_16 -1
    U_3_16 SU_3_17 1
    U_3_16 RU_3_17 -73.8871
    U_3_16 RD_3_16 -73.8871
    U_3_16 MUT_3_16 -1
    U_3_16 MDT_3_16 1
    MARKER 'MARKER' 'INTEND'
    V_3_16 OBJ 6120.6398
    V_3_16 SU_3_16 1
    V_3_16 RU_3_16 -49.869305
    V_3_16 MUT_3_16 1
    V_3_16 MUT_3_17 1
    V_3_16 MUT_3_18 1
    V_3_16 MUT_3_19 1
    V_3_16 MUT_3_20 1
    W_3_16 SU_3_16 -1
    W_3_16 RD_3_16 -200
    W_3_16 MDT_3_16 1
    W_3_16 MDT_3_17 1
    W_3_16 MDT_3_18 1
    P_3_16 OBJ 22.98464
    P_3_16 DEM_16 1
    P_3_16 PMAX_3_16 1
    P_3_16 PMIN_3_16 1
    P_3_16 RU_3_16 1
    P_3_16 RD_3_16 -1
    P_3_16 RU_3_17 -1
    P_3_16 RD_3_17 1
    MARKER 'MARKER' 'INTORG'
    U_4_16 OBJ 701.07385
    U_4_16 RES_16 300
    U_4_16 PMAX_4_16 -300
    U_4_16 PMIN_4_16 -110.39013
    U_4_16 SU_4_16 -1
    U_4_16 SU_4_17 1
    U_4_16 RU_4_17 -153.04389
    U_4_16 RD_4_16 -153.04389
    U_4_16 MUT_4_16 -1
    U_4_16 MDT_4_16 1
    MARKER 'MARKER' 'INTEND'
    V_4_16 OBJ 13464.078
    V_4_16 SU_4_16 1
    V_4_16 RU_4_16 -110.39013
    V_4_16 MUT_4_16 1
    V_4_16 MUT_4_17 1
    V_4_16 MUT_4_18 1
    W_4_16 SU_4_16 -1
    W_4_16 RD_4_16 -300
    W_4_16 MDT_4_16 1
    W_4_16 MDT_4_17 1
    W_4_16 MDT_4_18 1
    P_4_16 OBJ 59.782995
    P_4_16 DEM_16 1
    P_4_16 PMAX_4_16 1
    P_4_16 PMIN_4_16 1
    P_4_16 RU_4_16 1
    P_4_16 RD_4_16 -1
    P_4_16 RU_4_17 -1
    P_4_16 RD_4_17 1
    MARKER 'MARKER' 'INTORG'
    U_5_16 OBJ 1304.8049
    U_5_16 RES_16 400
    U_5_16 PMAX_5_16 -400
    U_5_16 PMIN_5_16 -195.42811
    U_5_16 SU_5_16 -1
    U_5_16 SU_5_17 1
    U_5_16 RU_5_17 -193.82507
    U_5_16 RD_5_16 -193.82507
    U_5_16 MUT_5_16 -1
    U_5_16 MDT_5_16 1
    MARKER 'MARKER' 'INTEND'
    V_5_16 OBJ 25163.622
    V_5_16 SU_5_16 1
    V_5_16 RU_5_16 -195.42811
    V_5_16 MUT_5_16 1
    V_5_16 MUT_5_17 1
    V_5_16 MUT_5_18 1
    V_5_16 MUT_5_19 1
    V_5_16 MUT_5_20 1
    W_5_16 SU_5_16 -1
    W_5_16 RD_5_16 -400
    W_5_16 MDT_5_16 1
    W_5_16 MDT_5_17 1
    P_5_16 OBJ 22.253309
    P_5_16 DEM_16 1
    P_5_16 PMAX_5_16 1
    P_5_16 PMIN_5_16 1
    P_5_16 RU_5_16 1
    P_5_16 RD_5_16 -1
    P_5_16 RU_5_17 -1
    P_5_16 RD_5_17 1
    MARKER 'MARKER' 'INTORG'
    U_6_16 OBJ 309.26589
    U_6_16 RES_16 150
    U_6_16 PMAX_6_16 -150
    U_6_16 PMIN_6_16 -52.537848
    U_6_16 SU_6_16 -1
    U_6_16 SU_6_17 1
    U_6_16 RU_6_17 -98.982035
    U_6_16 RD_6_16 -98.982035
    U_6_16 MUT_6_16 -1
    U_6_16 MDT_6_16 1
    MARKER 'MARKER' 'INTEND'
    V_6_16 OBJ 10945.658
    V_6_16 SU_6_16 1
    V_6_16 RU_6_16 -52.537848
    V_6_16 MUT_6_16 1
    V_6_16 MUT_6_17 1
    V_6_16 MUT_6_18 1
    V_6_16 MUT_6_19 1
    W_6_16 SU_6_16 -1
    W_6_16 RD_6_16 -150
    W_6_16 MDT_6_16 1
    W_6_16 MDT_6_17 1
    W_6_16 MDT_6_18 1
    P_6_16 OBJ 52.418602
    P_6_16 DEM_16 1
    P_6_16 PMAX_6_16 1
    P_6_16 PMIN_6_16 1
    P_6_16 RU_6_16 1
    P_6_16 RD_6_16 -1
    P_6_16 RU_6_17 -1
    P_6_16 RD_6_17 1
    MARKER 'MARKER' 'INTORG'
    U_7_16 OBJ 333.08661
    U_7_16 RES_16 200
    U_7_16 PMAX_7_16 -200
    U_7_16 PMIN_7_16 -83.426377
    U_7_16 SU_7_16 -1
    U_7_16 SU_7_17 1
    U_7_16 RU_7_17 -115.96573
    U_7_16 RD_7_16 -115.96573
    U_7_16 MUT_7_16 -1
    U_7_16 MDT_7_16 1
    MARKER 'MARKER' 'INTEND'
    V_7_16 OBJ 7896.0069
    V_7_16 SU_7_16 1
    V_7_16 RU_7_16 -83.426377
    V_7_16 MUT_7_16 1
    V_7_16 MUT_7_17 1
    W_7_16 SU_7_16 -1
    W_7_16 RD_7_16 -200
    W_7_16 MDT_7_16 1
    W_7_16 MDT_7_17 1
    W_7_16 MDT_7_18 1
    P_7_16 OBJ 36.897385
    P_7_16 DEM_16 1
    P_7_16 PMAX_7_16 1
    P_7_16 PMIN_7_16 1
    P_7_16 RU_7_16 1
    P_7_16 RD_7_16 -1
    P_7_16 RU_7_17 -1
    P_7_16 RD_7_17 1
    MARKER 'MARKER' 'INTORG'
    U_8_16 OBJ 467.79261
    U_8_16 RES_16 150
    U_8_16 PMAX_8_16 -150
    U_8_16 PMIN_8_16 -43.930341
    U_8_16 SU_8_16 -1
    U_8_16 SU_8_17 1
    U_8_16 RU_8_17 -76.064865
    U_8_16 RD_8_16 -76.064865
    U_8_16 MUT_8_16 -1
    U_8_16 MDT_8_16 1
    MARKER 'MARKER' 'INTEND'
    V_8_16 OBJ 7538.2394
    V_8_16 SU_8_16 1
    V_8_16 RU_8_16 -43.930341
    V_8_16 MUT_8_16 1
    V_8_16 MUT_8_17 1
    V_8_16 MUT_8_18 1
    V_8_16 MUT_8_19 1
    V_8_16 MUT_8_20 1
    W_8_16 SU_8_16 -1
    W_8_16 RD_8_16 -150
    W_8_16 MDT_8_16 1
    W_8_16 MDT_8_17 1
    W_8_16 MDT_8_18 1
    W_8_16 MDT_8_19 1
    P_8_16 OBJ 58.081277
    P_8_16 DEM_16 1
    P_8_16 PMAX_8_16 1
    P_8_16 PMIN_8_16 1
    P_8_16 RU_8_16 1
    P_8_16 RD_8_16 -1
    P_8_16 RU_8_17 -1
    P_8_16 RD_8_17 1
    MARKER 'MARKER' 'INTORG'
    U_9_16 OBJ 244.21564
    U_9_16 RES_16 80
    U_9_16 PMAX_9_16 -80
    U_9_16 PMIN_9_16 -27.733755
    U_9_16 SU_9_16 -1
    U_9_16 SU_9_17 1
    U_9_16 RU_9_17 -49.096955
    U_9_16 RD_9_16 -49.096955
    U_9_16 MUT_9_16 -1
    U_9_16 MDT_9_16 1
    MARKER 'MARKER' 'INTEND'
    V_9_16 OBJ 5833.9338
    V_9_16 SU_9_16 1
    V_9_16 RU_9_16 -27.733755
    V_9_16 MUT_9_16 1
    V_9_16 MUT_9_17 1
    V_9_16 MUT_9_18 1
    W_9_16 SU_9_16 -1
    W_9_16 RD_9_16 -80
    W_9_16 MDT_9_16 1
    P_9_16 OBJ 40.945998
    P_9_16 DEM_16 1
    P_9_16 PMAX_9_16 1
    P_9_16 PMIN_9_16 1
    P_9_16 RU_9_16 1
    P_9_16 RD_9_16 -1
    P_9_16 RU_9_17 -1
    P_9_16 RD_9_17 1
    MARKER 'MARKER' 'INTORG'
    U_10_16 OBJ 217.85959
    U_10_16 RES_16 80
    U_10_16 PMAX_10_16 -80
    U_10_16 PMIN_10_16 -39.929646
    U_10_16 SU_10_16 -1
    U_10_16 SU_10_17 1
    U_10_16 RU_10_17 -42.93441
    U_10_16 RD_10_16 -42.93441
    U_10_16 MUT_10_16 -1
    U_10_16 MDT_10_16 1
    MARKER 'MARKER' 'INTEND'
    V_10_16 OBJ 1834.7686
    V_10_16 SU_10_16 1
    V_10_16 RU_10_16 -39.929646
    V_10_16 MUT_10_16 1
    W_10_16 SU_10_16 -1
    W_10_16 RD_10_16 -80
    W_10_16 MDT_10_16 1
    W_10_16 MDT_10_17 1
    P_10_16 OBJ 25.71018
    P_10_16 DEM_16 1
    P_10_16 PMAX_10_16 1
    P_10_16 PMIN_10_16 1
    P_10_16 RU_10_16 1
    P_10_16 RD_10_16 -1
    P_10_16 RU_10_17 -1
    P_10_16 RD_10_17 1
    MARKER 'MARKER' 'INTORG'
    U_11_16 OBJ 94.492357
    U_11_16 RES_16 80
    U_11_16 PMAX_11_16 -80
    U_11_16 PMIN_11_16 -35.79394
    U_11_16 SU_11_16 -1
    U_11_16 SU_11_17 1
    U_11_16 RU_11_17 -48.30109
    U_11_16 RD_11_16 -48.30109
    U_11_16 MUT_11_16 -1
    U_11_16 MDT_11_16 1
    MARKER 'MARKER' 'INTEND'
    V_11_16 OBJ 5910.2458
    V_11_16 SU_11_16 1
    V_11_16 RU_11_16 -35.79394
    V_11_16 MUT_11_16 1
    W_11_16 SU_11_16 -1
    W_11_16 RD_11_16 -80
    W_11_16 MDT_11_16 1
    W_11_16 MDT_11_17 1
    W_11_16 MDT_11_18 1
    P_11_16 OBJ 74.699486
    P_11_16 DEM_16 1
    P_11_16 PMAX_11_16 1
    P_11_16 PMIN_11_16 1
    P_11_16 RU_11_16 1
    P_11_16 RD_11_16 -1
    P_11_16 RU_11_17 -1
    P_11_16 RD_11_17 1
    SHED_16 OBJ 1000
    SHED_16 DEM_16 1
    SHED_16 RES_16 1.1
    MARKER 'MARKER' 'INTORG'
    U_0_17 OBJ 501.84639
    U_0_17 RES_17 400
    U_0_17 PMAX_0_17 -400
    U_0_17 PMIN_0_17 -193.7393
    U_0_17 SU_0_17 -1
    U_0_17 SU_0_18 1
    U_0_17 RU_0_18 -237.7552
    U_0_17 RD_0_17 -237.7552
    U_0_17 MUT_0_17 -1
    U_0_17 MDT_0_17 1
    MARKER 'MARKER' 'INTEND'
    V_0_17 OBJ 28051.973
    V_0_17 SU_0_17 1
    V_0_17 RU_0_17 -193.7393
    V_0_17 MUT_0_17 1
    V_0_17 MUT_0_18 1
    V_0_17 MUT_0_19 1
    W_0_17 SU_0_17 -1
    W_0_17 RD_0_17 -400
    W_0_17 MDT_0_17 1
    W_0_17 MDT_0_18 1
    W_0_17 MDT_0_19 1
    P_0_17 OBJ 17.544812
    P_0_17 DEM_17 1
    P_0_17 PMAX_0_17 1
    P_0_17 PMIN_0_17 1
    P_0_17 RU_0_17 1
    P_0_17 RD_0_17 -1
    P_0_17 RU_0_18 -1
    P_0_17 RD_0_18 1
    MARKER 'MARKER' 'INTORG'
    U_1_17 OBJ 799.83128
    U_1_17 RES_17 200
    U_1_17 PMAX_1_17 -200
    U_1_17 PMIN_1_17 -42.144067
    U_1_17 SU_1_17 -1
    U_1_17 SU_1_18 1
    U_1_17 RU_1_18 -124.29356
    U_1_17 RD_1_17 -124.29356
    U_1_17 MUT_1_17 -1
    U_1_17 MDT_1_17 1
    MARKER 'MARKER' 'INTEND'
    V_1_17 OBJ 11661.656
    V_1_17 SU_1_17 1
    V_1_17 RU_1_17 -42.144067
    V_1_17 MUT_1_17 1
    V_1_17 MUT_1_18 1
    V_1_17 MUT_1_19 1
    V_1_17 MUT_1_20 1
    V_1_17 MUT_1_21 1
    W_1_17 SU_1_17 -1
    W_1_17 RD_1_17 -200
    W_1_17 MDT_1_17 1
    W_1_17 MDT_1_18 1
    W_1_17 MDT_1_19 1
    P_1_17 OBJ 45.656078
    P_1_17 DEM_17 1
    P_1_17 PMAX_1_17 1
    P_1_17 PMIN_1_17 1
    P_1_17 RU_1_17 1
    P_1_17 RD_1_17 -1
    P_1_17 RU_1_18 -1
    P_1_17 RD_1_18 1
    MARKER 'MARKER' 'INTORG'
    U_2_17 OBJ 541.96484
    U_2_17 RES_17 150
    U_2_17 PMAX_2_17 -150
    U_2_17 PMIN_2_17 -52.593028
    U_2_17 SU_2_17 -1
    U_2_17 SU_2_18 1
    U_2_17 RU_2_18 -100.91079
    U_2_17 RD_2_17 -100.91079
    U_2_17 MUT_2_17 -1
    U_2_17 MDT_2_17 1
    MARKER 'MARKER' 'INTEND'
    V_2_17 OBJ 6276.1299
    V_2_17 SU_2_17 1
    V_2_17 RU_2_17 -52.593028
    V_2_17 MUT_2_17 1
    V_2_17 MUT_2_18 1
    V_2_17 MUT_2_19 1
    V_2_17 MUT_2_20 1
    W_2_17 SU_2_17 -1
    W_2_17 RD_2_17 -150
    W_2_17 MDT_2_17 1
    W_2_17 MDT_2_18 1
    W_2_17 MDT_2_19 1
    W_2_17 MDT_2_20 1
    P_2_17 OBJ 55.554351
    P_2_17 DEM_17 1
    P_2_17 PMAX_2_17 1
    P_2_17 PMIN_2_17 1
    P_2_17 RU_2_17 1
    P_2_17 RD_2_17 -1
    P_2_17 RU_2_18 -1
    P_2_17 RD_2_18 1
    MARKER 'MARKER' 'INTORG'
    U_3_17 OBJ 338.3616
    U_3_17 RES_17 200
    U_3_17 PMAX_3_17 -200
    U_3_17 PMIN_3_17 -49.869305
    U_3_17 SU_3_17 -1
    U_3_17 SU_3_18 1
    U_3_17 RU_3_18 -73.8871
    U_3_17 RD_3_17 -73.8871
    U_3_17 MUT_3_17 -1
    U_3_17 MDT_3_17 1
    MARKER 'MARKER' 'INTEND'
    V_3_17 OBJ 6120.6398
    V_3_17 SU_3_17 1
    V_3_17 RU_3_17 -49.869305
    V_3_17 MUT_3_17 1
    V_3_17 MUT_3_18 1
    V_3_17 MUT_3_19 1
    V_3_17 MUT_3_20 1
    V_3_17 MUT_3_21 1
    W_3_17 SU_3_17 -1
    W_3_17 RD_3_17 -200
    W_3_17 MDT_3_17 1
    W_3_17 MDT_3_18 1
    W_3_17 MDT_3_19 1
    P_3_17 OBJ 22.98464
    P_3_17 DEM_17 1
    P_3_17 PMAX_3_17 1
    P_3_17 PMIN_3_17 1
    P_3_17 RU_3_17 1
    P_3_17 RD_3_17 -1
    P_3_17 RU_3_18 -1
    P_3_17 RD_3_18 1
    MARKER 'MARKER' 'INTORG'
    U_4_17 OBJ 701.07385
    U_4_17 RES_17 300
    U_4_17 PMAX_4_17 -300
    U_4_17 PMIN_4_17 -110.39013
    U_4_17 SU_4_17 -1
    U_4_17 SU_4_18 1
    U_4_17 RU_4_18 -153.04389
    U_4_17 RD_4_17 -153.04389
    U_4_17 MUT_4_17 -1
    U_4_17 MDT_4_17 1
    MARKER 'MARKER' 'INTEND'
    V_4_17 OBJ 13464.078
    V_4_17 SU_4_17 1
    V_4_17 RU_4_17 -110.39013
    V_4_17 MUT_4_17 1
    V_4_17 MUT_4_18 1
    V_4_17 MUT_4_19 1
    W_4_17 SU_4_17 -1
    W_4_17 RD_4_17 -300
    W_4_17 MDT_4_17 1
    W_4_17 MDT_4_18 1
    W_4_17 MDT_4_19 1
    P_4_17 OBJ 59.782995
    P_4_17 DEM_17 1
    P_4_17 PMAX_4_17 1
    P_4_17 PMIN_4_17 1
    P_4_17 RU_4_17 1
    P_4_17 RD_4_17 -1
    P_4_17 RU_4_18 -1
    P_4_17 RD_4_18 1
    MARKER 'MARKER' 'INTORG'
    U_5_17 OBJ 1304.8049
    U_5_17 RES_17 400
    U_5_17 PMAX_5_17 -400
    U_5_17 PMIN_5_17 -195.42811
    U_5_17 SU_5_17 -1
    U_5_17 SU_5_18 1
    U_5_17 RU_5_18 -193.82507
    U_5_17 RD_5_17 -193.82507
    U_5_17 MUT_5_17 -1
    U_5_17 MDT_5_17 1
    MARKER 'MARKER' 'INTEND'
    V_5_17 OBJ 25163.622
    V_5_17 SU_5_17 1
    V_5_17 RU_5_17 -195.42811
    V_5_17 MUT_5_17 1
    V_5_17 MUT_5_18 1
    V_5_17 MUT_5_19 1
    V_5_17 MUT_5_20 1
    V_5_17 MUT_5_21 1
    W_5_17 SU_5_17 -1
    W_5_17 RD_5_17 -400
    W_5_17 MDT_5_17 1
    W_5_17 MDT_5_18 1
    P_5_17 OBJ 22.253309
    P_5_17 DEM_17 1
    P_5_17 PMAX_5_17 1
    P_5_17 PMIN_5_17 1
    P_5_17 RU_5_17 1
    P_5_17 RD_5_17 -1
    P_5_17 RU_5_18 -1
    P_5_17 RD_5_18 1
    MARKER 'MARKER' 'INTORG'
    U_6_17 OBJ 309.26589
    U_6_17 RES_17 150
    U_6_17 PMAX_6_17 -150
    U_6_17 PMIN_6_17 -52.537848
    U_6_17 SU_6_17 -1
    U_6_17 SU_6_18 1
    U_6_17 RU_6_18 -98.982035
    U_6_17 RD_6_17 -98.982035
    U_6_17 MUT_6_17 -1
    U_6_17 MDT_6_17 1
    MARKER 'MARKER' 'INTEND'
    V_6_17 OBJ 10945.658
    V_6_17 SU_6_17 1
    V_6_17 RU_6_17 -52.537848
    V_6_17 MUT_6_17 1
    V_6_17 MUT_6_18 1
    V_6_17 MUT_6_19 1
    V_6_17 MUT_6_20 1
    W_6_17 SU_6_17 -1
    W_6_17 RD_6_17 -150
    W_6_17 MDT_6_17 1
    W_6_17 MDT_6_18 1
    W_6_17 MDT_6_19 1
    P_6_17 OBJ 52.418602
    P_6_17 DEM_17 1
    P_6_17 PMAX_6_17 1
    P_6_17 PMIN_6_17 1
    P_6_17 RU_6_17 1
    P_6_17 RD_6_17 -1
    P_6_17 RU_6_18 -1
    P_6_17 RD_6_18 1
    MARKER 'MARKER' 'INTORG'
    U_7_17 OBJ 333.08661
    U_7_17 RES_17 200
    U_7_17 PMAX_7_17 -200
    U_7_17 PMIN_7_17 -83.426377
    U_7_17 SU_7_17 -1
    U_7_17 SU_7_18 1
    U_7_17 RU_7_18 -115.96573
    U_7_17 RD_7_17 -115.96573
    U_7_17 MUT_7_17 -1
    U_7_17 MDT_7_17 1
    MARKER 'MARKER' 'INTEND'
    V_7_17 OBJ 7896.0069
    V_7_17 SU_7_17 1
    V_7_17 RU_7_17 -83.426377
    V_7_17 MUT_7_17 1
    V_7_17 MUT_7_18 1
    W_7_17 SU_7_17 -1
    W_7_17 RD_7_17 -200
    W_7_17 MDT_7_17 1
    W_7_17 MDT_7_18 1
    W_7_17 MDT_7_19 1
    P_7_17 OBJ 36.897385
    P_7_17 DEM_17 1
    P_7_17 PMAX_7_17 1
    P_7_17 PMIN_7_17 1
    P_7_17 RU_7_17 1
    P_7_17 RD_7_17 -1
    P_7_17 RU_7_18 -1
    P_7_17 RD_7_18 1
    MARKER 'MARKER' 'INTORG'
    U_8_17 OBJ 467.79261
    U_8_17 RES_17 150
    U_8_17 PMAX_8_17 -150
    U_8_17 PMIN_8_17 -43.930341
    U_8_17 SU_8_17 -1
    U_8_17 SU_8_18 1
    U_8_17 RU_8_18 -76.064865
    U_8_17 RD_8_17 -76.064865
    U_8_17 MUT_8_17 -1
    U_8_17 MDT_8_17 1
    MARKER 'MARKER' 'INTEND'
    V_8_17 OBJ 7538.2394
    V_8_17 SU_8_17 1
    V_8_17 RU_8_17 -43.930341
    V_8_17 MUT_8_17 1
    V_8_17 MUT_8_18 1
    V_8_17 MUT_8_19 1
    V_8_17 MUT_8_20 1
    V_8_17 MUT_8_21 1
    W_8_17 SU_8_17 -1
    W_8_17 RD_8_17 -150
    W_8_17 MDT_8_17 1
    W_8_17 MDT_8_18 1
    W_8_17 MDT_8_19 1
    W_8_17 MDT_8_20 1
    P_8_17 OBJ 58.081277
    P_8_17 DEM_17 1
    P_8_17 PMAX_8_17 1
    P_8_17 PMIN_8_17 1
    P_8_17 RU_8_17 1
    P_8_17 RD_8_17 -1
    P_8_17 RU_8_18 -1
    P_8_17 RD_8_18 1
    MARKER 'MARKER' 'INTORG'
    U_9_17 OBJ 244.21564
    U_9_17 RES_17 80
    U_9_17 PMAX_9_17 -80
    U_9_17 PMIN_9_17 -27.733755
    U_9_17 SU_9_17 -1
    U_9_17 SU_9_18 1
    U_9_17 RU_9_18 -49.096955
    U_9_17 RD_9_17 -49.096955
    U_9_17 MUT_9_17 -1
    U_9_17 MDT_9_17 1
    MARKER 'MARKER' 'INTEND'
    V_9_17 OBJ 5833.9338
    V_9_17 SU_9_17 1
    V_9_17 RU_9_17 -27.733755
    V_9_17 MUT_9_17 1
    V_9_17 MUT_9_18 1
    V_9_17 MUT_9_19 1
    W_9_17 SU_9_17 -1
    W_9_17 RD_9_17 -80
    W_9_17 MDT_9_17 1
    P_9_17 OBJ 40.945998
    P_9_17 DEM_17 1
    P_9_17 PMAX_9_17 1
    P_9_17 PMIN_9_17 1
    P_9_17 RU_9_17 1
    P_9_17 RD_9_17 -1
    P_9_17 RU_9_18 -1
    P_9_17 RD_9_18 1
    MARKER 'MARKER' 'INTORG'
    U_10_17 OBJ 217.85959
    U_10_17 RES_17 80
    U_10_17 PMAX_10_17 -80
    U_10_17 PMIN_10_17 -39.929646
    U_10_17 SU_10_17 -1
    U_10_17 SU_10_18 1
    U_10_17 RU_10_18 -42.93441
    U_10_17 RD_10_17 -42.93441
    U_10_17 MUT_10_17 -1
    U_10_17 MDT_10_17 1
    MARKER 'MARKER' 'INTEND'
    V_10_17 OBJ 1834.7686
    V_10_17 SU_10_17 1
    V_10_17 RU_10_17 -39.929646
    V_10_17 MUT_10_17 1
    W_10_17 SU_10_17 -1
    W_10_17 RD_10_17 -80
    W_10_17 MDT_10_17 1
    W_10_17 MDT_10_18 1
    P_10_17 OBJ 25.71018
    P_10_17 DEM_17 1
    P_10_17 PMAX_10_17 1
    P_10_17 PMIN_10_17 1
    P_10_17 RU_10_17 1
    P_10_17 RD_10_17 -1
    P_10_17 RU_10_18 -1
    P_10_17 RD_10_18 1
    MARKER 'MARKER' 'INTORG'
    U_11_17 OBJ 94.492357
    U_11_17 RES_17 80
    U_11_17 PMAX_11_17 -80
    U_11_17 PMIN_11_17 -35.79394
    U_11_17 SU_11_17 -1
    U_11_17 SU_11_18 1
    U_11_17 RU_11_18 -48.30109
    U_11_17 RD_11_17 -48.30109
    U_11_17 MUT_11_17 -1
    U_11_17 MDT_11_17 1
    MARKER 'MARKER' 'INTEND'
    V_11_17 OBJ 5910.2458
    V_11_17 SU_11_17 1
    V_11_17 RU_11_17 -35.79394
    V_11_17 MUT_11_17 1
    W_11_17 SU_11_17 -1
    W_11_17 RD_11_17 -80
    W_11_17 MDT_11_17 1
    W_11_17 MDT_11_18 1
    W_11_17 MDT_11_19 1
    P_11_17 OBJ 74.699486
    P_11_17 DEM_17 1
    P_11_17 PMAX_11_17 1
    P_11_17 PMIN_11_17 1
    P_11_17 RU_11_17 1
    P_11_17 RD_11_17 -1
    P_11_17 RU_11_18 -1
    P_11_17 RD_11_18 1
    SHED_17 OBJ 1000
    SHED_17 DEM_17 1
    SHED_17 RES_17 1.1
    MARKER 'MARKER' 'INTORG'
    U_0_18 OBJ 501.84639
    U_0_18 RES_18 400
    U_0_18 PMAX_0_18 -400
    U_0_18 PMIN_0_18 -193.7393
    U_0_18 SU_0_18 -1
    U_0_18 SU_0_19 1
    U_0_18 RU_0_19 -237.7552
    U_0_18 RD_0_18 -237.7552
    U_0_18 MUT_0_18 -1
    U_0_18 MDT_0_18 1
    MARKER 'MARKER' 'INTEND'
    V_0_18 OBJ 28051.973
    V_0_18 SU_0_18 1
    V_0_18 RU_0_18 -193.7393
    V_0_18 MUT_0_18 1
    V_0_18 MUT_0_19 1
    V_0_18 MUT_0_20 1
    W_0_18 SU_0_18 -1
    W_0_18 RD_0_18 -400
    W_0_18 MDT_0_18 1
    W_0_18 MDT_0_19 1
    W_0_18 MDT_0_20 1
    P_0_18 OBJ 17.544812
    P_0_18 DEM_18 1
    P_0_18 PMAX_0_18 1
    P_0_18 PMIN_0_18 1
    P_0_18 RU_0_18 1
    P_0_18 RD_0_18 -1
    P_0_18 RU_0_19 -1
    P_0_18 RD_0_19 1
    MARKER 'MARKER' 'INTORG'
    U_1_18 OBJ 799.83128
    U_1_18 RES_18 200
    U_1_18 PMAX_1_18 -200
    U_1_18 PMIN_1_18 -42.144067
    U_1_18 SU_1_18 -1
    U_1_18 SU_1_19 1
    U_1_18 RU_1_19 -124.29356
    U_1_18 RD_1_18 -124.29356
    U_1_18 MUT_1_18 -1
    U_1_18 MDT_1_18 1
    MARKER 'MARKER' 'INTEND'
    V_1_18 OBJ 11661.656
    V_1_18 SU_1_18 1
    V_1_18 RU_1_18 -42.144067
    V_1_18 MUT_1_18 1
    V_1_18 MUT_1_19 1
    V_1_18 MUT_1_20 1
    V_1_18 MUT_1_21 1
    V_1_18 MUT_1_22 1
    W_1_18 SU_1_18 -1
    W_1_18 RD_1_18 -200
    W_1_18 MDT_1_18 1
    W_1_18 MDT_1_19 1
    W_1_18 MDT_1_20 1
    P_1_18 OBJ 45.656078
    P_1_18 DEM_18 1
    P_1_18 PMAX_1_18 1
    P_1_18 PMIN_1_18 1
    P_1_18 RU_1_18 1
    P_1_18 RD_1_18 -1
    P_1_18 RU_1_19 -1
    P_1_18 RD_1_19 1
    MARKER 'MARKER' 'INTORG'
    U_2_18 OBJ 541.96484
    U_2_18 RES_18 150
    U_2_18 PMAX_2_18 -150
    U_2_18 PMIN_2_18 -52.593028
    U_2_18 SU_2_18 -1
    U_2_18 SU_2_19 1
    U_2_18 RU_2_19 -100.91079
    U_2_18 RD_2_18 -100.91079
    U_2_18 MUT_2_18 -1
    U_2_18 MDT_2_18 1
    MARKER 'MARKER' 'INTEND'
    V_2_18 OBJ 6276.1299
    V_2_18 SU_2_18 1
    V_2_18 RU_2_18 -52.593028
    V_2_18 MUT_2_18 1
    V_2_18 MUT_2_19 1
    V_2_18 MUT_2_20 1
    V_2_18 MUT_2_21 1
    W_2_18 SU_2_18 -1
    W_2_18 RD_2_18 -150
    W_2_18 MDT_2_18 1
    W_2_18 MDT_2_19 1
    W_2_18 MDT_2_20 1
    W_2_18 MDT_2_21 1
    P_2_18 OBJ 55.554351
    P_2_18 DEM_18 1
    P_2_18 PMAX_2_18 1
    P_2_18 PMIN_2_18 1
    P_2_18 RU_2_18 1
    P_2_18 RD_2_18 -1
    P_2_18 RU_2_19 -1
    P_2_18 RD_2_19 1
    MARKER 'MARKER' 'INTORG'
    U_3_18 OBJ 338.3616
    U_3_18 RES_18 200
    U_3_18 PMAX_3_18 -200
    U_3_18 PMIN_3_18 -49.869305
    U_3_18 SU_3_18 -1
    U_3_18 SU_3_19 1
    U_3_18 RU_3_19 -73.8871
    U_3_18 RD_3_18 -73.8871
    U_3_18 MUT_3_18 -1
    U_3_18 MDT_3_18 1
    MARKER 'MARKER' 'INTEND'
    V_3_18 OBJ 6120.6398
    V_3_18 SU_3_18 1
    V_3_18 RU_3_18 -49.869305
    V_3_18 MUT_3_18 1
    V_3_18 MUT_3_19 1
    V_3_18 MUT_3_20 1
    V_3_18 MUT_3_21 1
    V_3_18 MUT_3_22 1
    W_3_18 SU_3_18 -1
    W_3_18 RD_3_18 -200
    W_3_18 MDT_3_18 1
    W_3_18 MDT_3_19 1
    W_3_18 MDT_3_20 1
    P_3_18 OBJ 22.98464
    P_3_18 DEM_18 1
    P_3_18 PMAX_3_18 1
    P_3_18 PMIN_3_18 1
    P_3_18 RU_3_18 1
    P_3_18 RD_3_18 -1
    P_3_18 RU_3_19 -1
    P_3_18 RD_3_19 1
    MARKER 'MARKER' 'INTORG'
    U_4_18 OBJ 701.07385
    U_4_18 RES_18 300
    U_4_18 PMAX_4_18 -300
    U_4_18 PMIN_4_18 -110.39013
    U_4_18 SU_4_18 -1
    U_4_18 SU_4_19 1
    U_4_18 RU_4_19 -153.04389
    U_4_18 RD_4_18 -153.04389
    U_4_18 MUT_4_18 -1
    U_4_18 MDT_4_18 1
    MARKER 'MARKER' 'INTEND'
    V_4_18 OBJ 13464.078
    V_4_18 SU_4_18 1
    V_4_18 RU_4_18 -110.39013
    V_4_18 MUT_4_18 1
    V_4_18 MUT_4_19 1
    V_4_18 MUT_4_20 1
    W_4_18 SU_4_18 -1
    W_4_18 RD_4_18 -300
    W_4_18 MDT_4_18 1
    W_4_18 MDT_4_19 1
    W_4_18 MDT_4_20 1
    P_4_18 OBJ 59.782995
    P_4_18 DEM_18 1
    P_4_18 PMAX_4_18 1
    P_4_18 PMIN_4_18 1
    P_4_18 RU_4_18 1
    P_4_18 RD_4_18 -1
    P_4_18 RU_4_19 -1
    P_4_18 RD_4_19 1
    MARKER 'MARKER' 'INTORG'
    U_5_18 OBJ 1304.8049
    U_5_18 RES_18 400
    U_5_18 PMAX_5_18 -400
    U_5_18 PMIN_5_18 -195.42811
    U_5_18 SU_5_18 -1
    U_5_18 SU_5_19 1
    U_5_18 RU_5_19 -193.82507
    U_5_18 RD_5_18 -193.82507
    U_5_18 MUT_5_18 -1
    U_5_18 MDT_5_18 1
    MARKER 'MARKER' 'INTEND'
    V_5_18 OBJ 25163.622
    V_5_18 SU_5_18 1
    V_5_18 RU_5_18 -195.42811
    V_5_18 MUT_5_18 1
    V_5_18 MUT_5_19 1
    V_5_18 MUT_5_20 1
    V_5_18 MUT_5_21 1
    V_5_18 MUT_5_22 1
    W_5_18 SU_5_18 -1
    W_5_18 RD_5_18 -400
    W_5_18 MDT_5_18 1
    W_5_18 MDT_5_19 1
    P_5_18 OBJ 22.253309
    P_5_18 DEM_18 1
    P_5_18 PMAX_5_18 1
    P_5_18 PMIN_5_18 1
    P_5_18 RU_5_18 1
    P_5_18 RD_5_18 -1
    P_5_18 RU_5_19 -1
    P_5_18 RD_5_19 1
    MARKER 'MARKER' 'INTORG'
    U_6_18 OBJ 309.26589
    U_6_18 RES_18 150
    U_6_18 PMAX_6_18 -150
    U_6_18 PMIN_6_18 -52.537848
    U_6_18 SU_6_18 -1
    U_6_18 SU_6_19 1
    U_6_18 RU_6_19 -98.982035
    U_6_18 RD_6_18 -98.982035
    U_6_18 MUT_6_18 -1
    U_6_18 MDT_6_18 1
    MARKER 'MARKER' 'INTEND'
    V_6_18 OBJ 10945.658
    V_6_18 SU_6_18 1
    V_6_18 RU_6_18 -52.537848
    V_6_18 MUT_6_18 1
    V_6_18 MUT_6_19 1
    V_6_18 MUT_6_20 1
    V_6_18 MUT_6_21 1
    W_6_18 SU_6_18 -1
    W_6_18 RD_6_18 -150
    W_6_18 MDT_6_18 1
    W_6_18 MDT_6_19 1
    W_6_18 MDT_6_20 1
    P_6_18 OBJ 52.418602
    P_6_18 DEM_18 1
    P_6_18 PMAX_6_18 1
    P_6_18 PMIN_6_18 1
    P_6_18 RU_6_18 1
    P_6_18 RD_6_18 -1
    P_6_18 RU_6_19 -1
    P_6_18 RD_6_19 1
    MARKER 'MARKER' 'INTORG'
    U_7_18 OBJ 333.08661
    U_7_18 RES_18 200
    U_7_18 PMAX_7_18 -200
    U_7_18 PMIN_7_18 -83.426377
    U_7_18 SU_7_18 -1
    U_7_18 SU_7_19 1
    U_7_18 RU_7_19 -115.96573
    U_7_18 RD_7_18 -115.96573
    U_7_18 MUT_7_18 -1
    U_7_18 MDT_7_18 1
    MARKER 'MARKER' 'INTEND'
    V_7_18 OBJ 7896.0069
    V_7_18 SU_7_18 1
    V_7_18 RU_7_18 -83.426377
    V_7_18 MUT_7_18 1
    V_7_18 MUT_7_19 1
    W_7_18 SU_7_18 -1
    W_7_18 RD_7_18 -200
    W_7_18 MDT_7_18 1
    W_7_18 MDT_7_19 1
    W_7_18 MDT_7_20 1
    P_7_18 OBJ 36.897385
    P_7_18 DEM_18 1
    P_7_18 PMAX_7_18 1
    P_7_18 PMIN_7_18 1
    P_7_18 RU_7_18 1
    P_7_18 RD_7_18 -1
    P_7_18 RU_7_19 -1
    P_7_18 RD_7_19 1
    MARKER 'MARKER' 'INTORG'
    U_8_18 OBJ 467.79261
    U_8_18 RES_18 150
    U_8_18 PMAX_8_18 -150
    U_8_18 PMIN_8_18 -43.930341
    U_8_18 SU_8_18 -1
    U_8_18 SU_8_19 1
    U_8_18 RU_8_19 -76.064865
    U_8_18 RD_8_18 -76.064865
    U_8_18 MUT_8_18 -1
    U_8_18 MDT_8_18 1
    MARKER 'MARKER' 'INTEND'
    V_8_18 OBJ 7538.2394
    V_8_18 SU_8_18 1
    V_8_18 RU_8_18 -43.930341
    V_8_18 MUT_8_18 1
    V_8_18 MUT_8_19 1
    V_8_18 MUT_8_20 1
    V_8_18 MUT_8_21 1
    V_8_18 MUT_8_22 1
    W_8_18 SU_8_18 -1
    W_8_18 RD_8_18 -150
    W_8_18 MDT_8_18 1
    W_8_18 MDT_8_19 1
    W_8_18 MDT_8_20 1
    W_8_18 MDT_8_21 1
    P_8_18 OBJ 58.081277
    P_8_18 DEM_18 1
    P_8_18 PMAX_8_18 1
    P_8_18 PMIN_8_18 1
    P_8_18 RU_8_18 1
    P_8_18 RD_8_18 -1
    P_8_18 RU_8_19 -1
    P_8_18 RD_8_19 1
    MARKER 'MARKER' 'INTORG'
    U_9_18 OBJ 244.21564
    U_9_18 RES_18 80
    U_9_18 PMAX_9_18 -80
    U_9_18 PMIN_9_18 -27.733755
    U_9_18 SU_9_18 -1
    U_9_18 SU_9_19 1
    U_9_18 RU_9_19 -49.096955
    U_9_18 RD_9_18 -49.096955
    U_9_18 MUT_9_18 -1
    U_9_18 MDT_9_18 1
    MARKER 'MARKER' 'INTEND'
    V_9_18 OBJ 5833.9338
    V_9_18 SU_9_18 1
    V_9_18 RU_9_18 -27.733755
    V_9_18 MUT_9_18 1
    V_9_18 MUT_9_19 1
    V_9_18 MUT_9_20 1
    W_9_18 SU_9_18 -1
    W_9_18 RD_9_18 -80
    W_9_18 MDT_9_18 1
    P_9_18 OBJ 40.945998
    P_9_18 DEM_18 1
    P_9_18 PMAX_9_18 1
    P_9_18 PMIN_9_18 1
    P_9_18 RU_9_18 1
    P_9_18 RD_9_18 -1
    P_9_18 RU_9_19 -1
    P_9_18 RD_9_19 1
    MARKER 'MARKER' 'INTORG'
    U_10_18 OBJ 217.85959
    U_10_18 RES_18 80
    U_10_18 PMAX_10_18 -80
    U_10_18 PMIN_10_18 -39.929646
    U_10_18 SU_10_18 -1
    U_10_18 SU_10_19 1
    U_10_18 RU_10_19 -42.93441
    U_10_18 RD_10_18 -42.93441
    U_10_18 MUT_10_18 -1
    U_10_18 MDT_10_18 1
    MARKER 'MARKER' 'INTEND'
    V_10_18 OBJ 1834.7686
    V_10_18 SU_10_18 1
    V_10_18 RU_10_18 -39.929646
    V_10_18 MUT_10_18 1
    W_10_18 SU_10_18 -1
    W_10_18 RD_10_18 -80
    W_10_18 MDT_10_18 1
    W_10_18 MDT_10_19 1
    P_10_18 OBJ 25.71018
    P_10_18 DEM_18 1
    P_10_18 PMAX_10_18 1
    P_10_18 PMIN_10_18 1
    P_10_18 RU_10_18 1
    P_10_18 RD_10_18 -1
    P_10_18 RU_10_19 -1
    P_10_18 RD_10_19 1
    MARKER 'MARKER' 'INTORG'
    U_11_18 OBJ 94.492357
    U_11_18 RES_18 80
    U_11_18 PMAX_11_18 -80
    U_11_18 PMIN_11_18 -35.79394
    U_11_18 SU_11_18 -1
    U_11_18 SU_11_19 1
    U_11_18 RU_11_19 -48.30109
    U_11_18 RD_11_18 -48.30109
    U_11_18 MUT_11_18 -1
    U_11_18 MDT_11_18 1
    MARKER 'MARKER' 'INTEND'
    V_11_18 OBJ 5910.2458
    V_11_18 SU_11_18 1
    V_11_18 RU_11_18 -35.79394
    V_11_18 MUT_11_18 1
    W_11_18 SU_11_18 -1
    W_11_18 RD_11_18 -80
    W_11_18 MDT_11_18 1
    W_11_18 MDT_11_19 1
    W_11_18 MDT_11_20 1
    P_11_18 OBJ 74.699486
    P_11_18 DEM_18 1
    P_11_18 PMAX_11_18 1
    P_11_18 PMIN_11_18 1
    P_11_18 RU_11_18 1
    P_11_18 RD_11_18 -1
    P_11_18 RU_11_19 -1
    P_11_18 RD_11_19 1
    SHED_18 OBJ 1000
    SHED_18 DEM_18 1
    SHED_18 RES_18 1.1
    MARKER 'MARKER' 'INTORG'
    U_0_19 OBJ 501.84639
    U_0_19 RES_19 400
    U_0_19 PMAX_0_19 -400
    U_0_19 PMIN_0_19 -193.7393
    U_0_19 SU_0_19 -1
    U_0_19 SU_0_20 1
    U_0_19 RU_0_20 -237.7552
    U_0_19 RD_0_19 -237.7552
    U_0_19 MUT_0_19 -1
    U_0_19 MDT_0_19 1
    MARKER 'MARKER' 'INTEND'
    V_0_19 OBJ 28051.973
    V_0_19 SU_0_19 1
    V_0_19 RU_0_19 -193.7393
    V_0_19 MUT_0_19 1
    V_0_19 MUT_0_20 1
    V_0_19 MUT_0_21 1
    W_0_19 SU_0_19 -1
    W_0_19 RD_0_19 -400
    W_0_19 MDT_0_19 1
    W_0_19 MDT_0_20 1
    W_0_19 MDT_0_21 1
    P_0_19 OBJ 17.544812
    P_0_19 DEM_19 1
    P_0_19 PMAX_0_19 1
    P_0_19 PMIN_0_19 1
    P_0_19 RU_0_19 1
    P_0_19 RD_0_19 -1
    P_0_19 RU_0_20 -1
    P_0_19 RD_0_20 1
    MARKER 'MARKER' 'INTORG'
    U_1_19 OBJ 799.83128
    U_1_19 RES_19 200
    U_1_19 PMAX_1_19 -200
    U_1_19 PMIN_1_19 -42.144067
    U_1_19 SU_1_19 -1
    U_1_19 SU_1_20 1
    U_1_19 RU_1_20 -124.29356
    U_1_19 RD_1_19 -124.29356
    U_1_19 MUT_1_19 -1
    U_1_19 MDT_1_19 1
    MARKER 'MARKER' 'INTEND'
    V_1_19 OBJ 11661.656
    V_1_19 SU_1_19 1
    V_1_19 RU_1_19 -42.144067
    V_1_19 MUT_1_19 1
    V_1_19 MUT_1_20 1
    V_1_19 MUT_1_21 1
    V_1_19 MUT_1_22 1
    V_1_19 MUT_1_23 1
    W_1_19 SU_1_19 -1
    W_1_19 RD_1_19 -200
    W_1_19 MDT_1_19 1
    W_1_19 MDT_1_20 1
    W_1_19 MDT_1_21 1
    P_1_19 OBJ 45.656078
    P_1_19 DEM_19 1
    P_1_19 PMAX_1_19 1
    P_1_19 PMIN_1_19 1
    P_1_19 RU_1_19 1
    P_1_19 RD_1_19 -1
    P_1_19 RU_1_20 -1
    P_1_19 RD_1_20 1
    MARKER 'MARKER' 'INTORG'
    U_2_19 OBJ 541.96484
    U_2_19 RES_19 150
    U_2_19 PMAX_2_19 -150
    U_2_19 PMIN_2_19 -52.593028
    U_2_19 SU_2_19 -1
    U_2_19 SU_2_20 1
    U_2_19 RU_2_20 -100.91079
    U_2_19 RD_2_19 -100.91079
    U_2_19 MUT_2_19 -1
    U_2_19 MDT_2_19 1
    MARKER 'MARKER' 'INTEND'
    V_2_19 OBJ 6276.1299
    V_2_19 SU_2_19 1
    V_2_19 RU_2_19 -52.593028
    V_2_19 MUT_2_19 1
    V_2_19 MUT_2_20 1
    V_2_19 MUT_2_21 1
    V_2_19 MUT_2_22 1
    W_2_19 SU_2_19 -1
    W_2_19 RD_2_19 -150
    W_2_19 MDT_2_19 1
    W_2_19 MDT_2_20 1
    W_2_19 MDT_2_21 1
    W_2_19 MDT_2_22 1
    P_2_19 OBJ 55.554351
    P_2_19 DEM_19 1
    P_2_19 PMAX_2_19 1
    P_2_19 PMIN_2_19 1
    P_2_19 RU_2_19 1
    P_2_19 RD_2_19 -1
    P_2_19 RU_2_20 -1
    P_2_19 RD_2_20 1
    MARKER 'MARKER' 'INTORG'
    U_3_19 OBJ 338.3616
    U_3_19 RES_19 200
    U_3_19 PMAX_3_19 -200
    U_3_19 PMIN_3_19 -49.869305
    U_3_19 SU_3_19 -1
    U_3_19 SU_3_20 1
    U_3_19 RU_3_20 -73.8871
    U_3_19 RD_3_19 -73.8871
    U_3_19 MUT_3_19 -1
    U_3_19 MDT_3_19 1
    MARKER 'MARKER' 'INTEND'
    V_3_19 OBJ 6120.6398
    V_3_19 SU_3_19 1
    V_3_19 RU_3_19 -49.869305
    V_3_19 MUT_3_19 1
    V_3_19 MUT_3_20 1
    V_3_19 MUT_3_21 1
    V_3_19 MUT_3_22 1
    V_3_19 MUT_3_23 1
    W_3_19 SU_3_19 -1
    W_3_19 RD_3_19 -200
    W_3_19 MDT_3_19 1
    W_3_19 MDT_3_20 1
    W_3_19 MDT_3_21 1
    P_3_19 OBJ 22.98464
    P_3_19 DEM_19 1
    P_3_19 PMAX_3_19 1
    P_3_19 PMIN_3_19 1
    P_3_19 RU_3_19 1
    P_3_19 RD_3_19 -1
    P_3_19 RU_3_20 -1
    P_3_19 RD_3_20 1
    MARKER 'MARKER' 'INTORG'
    U_4_19 OBJ 701.07385
    U_4_19 RES_19 300
    U_4_19 PMAX_4_19 -300
    U_4_19 PMIN_4_19 -110.39013
    U_4_19 SU_4_19 -1
    U_4_19 SU_4_20 1
    U_4_19 RU_4_20 -153.04389
    U_4_19 RD_4_19 -153.04389
    U_4_19 MUT_4_19 -1
    U_4_19 MDT_4_19 1
    MARKER 'MARKER' 'INTEND'
    V_4_19 OBJ 13464.078
    V_4_19 SU_4_19 1
    V_4_19 RU_4_19 -110.39013
    V_4_19 MUT_4_19 1
    V_4_19 MUT_4_20 1
    V_4_19 MUT_4_21 1
    W_4_19 SU_4_19 -1
    W_4_19 RD_4_19 -300
    W_4_19 MDT_4_19 1
    W_4_19 MDT_4_20 1
    W_4_19 MDT_4_21 1
    P_4_19 OBJ 59.782995
    P_4_19 DEM_19 1
    P_4_19 PMAX_4_19 1
    P_4_19 PMIN_4_19 1
    P_4_19 RU_4_19 1
    P_4_19 RD_4_19 -1
    P_4_19 RU_4_20 -1
    P_4_19 RD_4_20 1
    MARKER 'MARKER' 'INTORG'
    U_5_19 OBJ 1304.8049
    U_5_19 RES_19 400
    U_5_19 PMAX_5_19 -400
    U_5_19 PMIN_5_19 -195.42811
    U_5_19 SU_5_19 -1
    U_5_19 SU_5_20 1
    U_5_19 RU_5_20 -193.82507
    U_5_19 RD_5_19 -193.82507
    U_5_19 MUT_5_19 -1
    U_5_19 MDT_5_19 1
    MARKER 'MARKER' 'INTEND'
    V_5_19 OBJ 25163.622
    V_5_19 SU_5_19 1
    V_5_19 RU_5_19 -195.42811
    V_5_19 MUT_5_19 1
    V_5_19 MUT_5_20 1
    V_5_19 MUT_5_21 1
    V_5_19 MUT_5_22 1
    V_5_19 MUT_5_23 1
    W_5_19 SU_5_19 -1
    W_5_19 RD_5_19 -400
    W_5_19 MDT_5_19 1
    W_5_19 MDT_5_20 1
    P_5_19 OBJ 22.253309
    P_5_19 DEM_19 1
    P_5_19 PMAX_5_19 1
    P_5_19 PMIN_5_19 1
    P_5_19 RU_5_19 1
    P_5_19 RD_5_19 -1
    P_5_19 RU_5_20 -1
    P_5_19 RD_5_20 1
    MARKER 'MARKER' 'INTORG'
    U_6_19 OBJ 309.26589
    U_6_19 RES_19 150
    U_6_19 PMAX_6_19 -150
    U_6_19 PMIN_6_19 -52.537848
    U_6_19 SU_6_19 -1
    U_6_19 SU_6_20 1
    U_6_19 RU_6_20 -98.982035
    U_6_19 RD_6_19 -98.982035
    U_6_19 MUT_6_19 -1
    U_6_19 MDT_6_19 1
    MARKER 'MARKER' 'INTEND'
    V_6_19 OBJ 10945.658
    V_6_19 SU_6_19 1
    V_6_19 RU_6_19 -52.537848
    V_6_19 MUT_6_19 1
    V_6_19 MUT_6_20 1
    V_6_19 MUT_6_21 1
    V_6_19 MUT_6_22 1
    W_6_19 SU_6_19 -1
    W_6_19 RD_6_19 -150
    W_6_19 MDT_6_19 1
    W_6_19 MDT_6_20 1
    W_6_19 MDT_6_21 1
    P_6_19 OBJ 52.418602
    P_6_19 DEM_19 1
    P_6_19 PMAX_6_19 1
    P_6_19 PMIN_6_19 1
    P_6_19 RU_6_19 1
    P_6_19 RD_6_19 -1
    P_6_19 RU_6_20 -1
    P_6_19 RD_6_20 1
    MARKER 'MARKER' 'INTORG'
    U_7_19 OBJ 333.08661
    U_7_19 RES_19 200
    U_7_19 PMAX_7_19 -200
    U_7_19 PMIN_7_19 -83.426377
    U_7_19 SU_7_19 -1
    U_7_19 SU_7_20 1
    U_7_19 RU_7_20 -115.96573
    U_7_19 RD_7_19 -115.96573
    U_7_19 MUT_7_19 -1
    U_7_19 MDT_7_19 1
    MARKER 'MARKER' 'INTEND'
    V_7_19 OBJ 7896.0069
    V_7_19 SU_7_19 1
    V_7_19 RU_7_19 -83.426377
    V_7_19 MUT_7_19 1
    V_7_19 MUT_7_20 1
    W_7_19 SU_7_19 -1
    W_7_19 RD_7_19 -200
    W_7_19 MDT_7_19 1
    W_7_19 MDT_7_20 1
    W_7_19 MDT_7_21 1
    P_7_19 OBJ 36.897385
    P_7_19 DEM_19 1
    P_7_19 PMAX_7_19 1
    P_7_19 PMIN_7_19 1
    P_7_19 RU_7_19 1
    P_7_19 RD_7_19 -1
    P_7_19 RU_7_20 -1
    P_7_19 RD_7_20 1
    MARKER 'MARKER' 'INTORG'
    U_8_19 OBJ 467.79261
    U_8_19 RES_19 150
    U_8_19 PMAX_8_19 -150
    U_8_19 PMIN_8_19 -43.930341
    U_8_19 SU_8_19 -1
    U_8_19 SU_8_20 1
    U_8_19 RU_8_20 -76.064865
    U_8_19 RD_8_19 -76.064865
    U_8_19 MUT_8_19 -1
    U_8_19 MDT_8_19 1
    MARKER 'MARKER' 'INTEND'
    V_8_19 OBJ 7538.2394
    V_8_19 SU_8_19 1
    V_8_19 RU_8_19 -43.930341
    V_8_19 MUT_8_19 1
    V_8_19 MUT_8_20 1
    V_8_19 MUT_8_21 1
    V_8_19 MUT_8_22 1
    V_8_19 MUT_8_23 1
    W_8_19 SU_8_19 -1
    W_8_19 RD_8_19 -150
    W_8_19 MDT_8_19 1
    W_8_19 MDT_8_20 1
    W_8_19 MDT_8_21 1
    W_8_19 MDT_8_22 1
    P_8_19 OBJ 58.081277
    P_8_19 DEM_19 1
    P_8_19 PMAX_8_19 1
    P_8_19 PMIN_8_19 1
    P_8_19 RU_8_19 1
    P_8_19 RD_8_19 -1
    P_8_19 RU_8_20 -1
    P_8_19 RD_8_20 1
    MARKER 'MARKER' 'INTORG'
    U_9_19 OBJ 244.21564
    U_9_19 RES_19 80
    U_9_19 PMAX_9_19 -80
    U_9_19 PMIN_9_19 -27.733755
    U_9_19 SU_9_19 -1
    U_9_19 SU_9_20 1
    U_9_19 RU_9_20 -49.096955
    U_9_19 RD_9_19 -49.096955
    U_9_19 MUT_9_19 -1
    U_9_19 MDT_9_19 1
    MARKER 'MARKER' 'INTEND'
    V_9_19 OBJ 5833.9338
    V_9_19 SU_9_19 1
    V_9_19 RU_9_19 -27.733755
    V_9_19 MUT_9_19 1
    V_9_19 MUT_9_20 1
    V_9_19 MUT_9_21 1
    W_9_19 SU_9_19 -1
    W_9_19 RD_9_19 -80
    W_9_19 MDT_9_19 1
    P_9_19 OBJ 40.945998
    P_9_19 DEM_19 1
    P_9_19 PMAX_9_19 1
    P_9_19 PMIN_9_19 1
    P_9_19 RU_9_19 1
    P_9_19 RD_9_19 -1
    P_9_19 RU_9_20 -1
    P_9_19 RD_9_20 1
    MARKER 'MARKER' 'INTORG'
    U_10_19 OBJ 217.85959
    U_10_19 RES_19 80
    U_10_19 PMAX_10_19 -80
    U_10_19 PMIN_10_19 -39.929646
    U_10_19 SU_10_19 -1
    U_10_19 SU_10_20 1
    U_10_19 RU_10_20 -42.93441
    U_10_19 RD_10_19 -42.93441
    U_10_19 MUT_10_19 -1
    U_10_19 MDT_10_19 1
    MARKER 'MARKER' 'INTEND'
    V_10_19 OBJ 1834.7686
    V_10_19 SU_10_19 1
    V_10_19 RU_10_19 -39.929646
    V_10_19 MUT_10_19 1
    W_10_19 SU_10_19 -1
    W_10_19 RD_10_19 -80
    W_10_19 MDT_10_19 1
    W_10_19 MDT_10_20 1
    P_10_19 OBJ 25.71018
    P_10_19 DEM_19 1
    P_10_19 PMAX_10_19 1
    P_10_19 PMIN_10_19 1
    P_10_19 RU_10_19 1
    P_10_19 RD_10_19 -1
    P_10_19 RU_10_20 -1
    P_10_19 RD_10_20 1
    MARKER 'MARKER' 'INTORG'
    U_11_19 OBJ 94.492357
    U_11_19 RES_19 80
    U_11_19 PMAX_11_19 -80
    U_11_19 PMIN_11_19 -35.79394
    U_11_19 SU_11_19 -1
    U_11_19 SU_11_20 1
    U_11_19 RU_11_20 -48.30109
    U_11_19 RD_11_19 -48.30109
    U_11_19 MUT_11_19 -1
    U_11_19 MDT_11_19 1
    MARKER 'MARKER' 'INTEND'
    V_11_19 OBJ 5910.2458
    V_11_19 SU_11_19 1
    V_11_19 RU_11_19 -35.79394
    V_11_19 MUT_11_19 1
    W_11_19 SU_11_19 -1
    W_11_19 RD_11_19 -80
    W_11_19 MDT_11_19 1
    W_11_19 MDT_11_20 1
    W_11_19 MDT_11_21 1
    P_11_19 OBJ 74.699486
    P_11_19 DEM_19 1
    P_11_19 PMAX_11_19 1
    P_11_19 PMIN_11_19 1
    P_11_19 RU_11_19 1
    P_11_19 RD_11_19 -1
    P_11_19 RU_11_20 -1
    P_11_19 RD_11_20 1
    SHED_19 OBJ 1000
    SHED_19 DEM_19 1
    SHED_19 RES_19 1.1
    MARKER 'MARKER' 'INTORG'
    U_0_20 OBJ 501.84639
    U_0_20 RES_20 400
    U_0_20 PMAX_0_20 -400
    U_0_20 PMIN_0_20 -193.7393
    U_0_20 SU_0_20 -1
    U_0_20 SU_0_21 1
    U_0_20 RU_0_21 -237.7552
    U_0_20 RD_0_20 -237.7552
    U_0_20 MUT_0_20 -1
    U_0_20 MDT_0_20 1
    MARKER 'MARKER' 'INTEND'
    V_0_20 OBJ 28051.973
    V_0_20 SU_0_20 1
    V_0_20 RU_0_20 -193.7393
    V_0_20 MUT_0_20 1
    V_0_20 MUT_0_21 1
    V_0_20 MUT_0_22 1
    W_0_20 SU_0_20 -1
    W_0_20 RD_0_20 -400
    W_0_20 MDT_0_20 1
    W_0_20 MDT_0_21 1
    W_0_20 MDT_0_22 1
    P_0_20 OBJ 17.544812
    P_0_20 DEM_20 1
    P_0_20 PMAX_0_20 1
    P_0_20 PMIN_0_20 1
    P_0_20 RU_0_20 1
    P_0_20 RD_0_20 -1
    P_0_20 RU_0_21 -1
    P_0_20 RD_0_21 1
    MARKER 'MARKER' 'INTORG'
    U_1_20 OBJ 799.83128
    U_1_20 RES_20 200
    U_1_20 PMAX_1_20 -200
    U_1_20 PMIN_1_20 -42.144067
    U_1_20 SU_1_20 -1
    U_1_20 SU_1_21 1
    U_1_20 RU_1_21 -124.29356
    U_1_20 RD_1_20 -124.29356
    U_1_20 MUT_1_20 -1
    U_1_20 MDT_1_20 1
    MARKER 'MARKER' 'INTEND'
    V_1_20 OBJ 11661.656
    V_1_20 SU_1_20 1
    V_1_20 RU_1_20 -42.144067
    V_1_20 MUT_1_20 1
    V_1_20 MUT_1_21 1
    V_1_20 MUT_1_22 1
    V_1_20 MUT_1_23 1
    W_1_20 SU_1_20 -1
    W_1_20 RD_1_20 -200
    W_1_20 MDT_1_20 1
    W_1_20 MDT_1_21 1
    W_1_20 MDT_1_22 1
    P_1_20 OBJ 45.656078
    P_1_20 DEM_20 1
    P_1_20 PMAX_1_20 1
    P_1_20 PMIN_1_20 1
    P_1_20 RU_1_20 1
    P_1_20 RD_1_20 -1
    P_1_20 RU_1_21 -1
    P_1_20 RD_1_21 1
    MARKER 'MARKER' 'INTORG'
    U_2_20 OBJ 541.96484
    U_2_20 RES_20 150
    U_2_20 PMAX_2_20 -150
    U_2_20 PMIN_2_20 -52.593028
    U_2_20 SU_2_20 -1
    U_2_20 SU_2_21 1
    U_2_20 RU_2_21 -100.91079
    U_2_20 RD_2_20 -100.91079
    U_2_20 MUT_2_20 -1
    U_2_20 MDT_2_20 1
    MARKER 'MARKER' 'INTEND'
    V_2_20 OBJ 6276.1299
    V_2_20 SU_2_20 1
    V_2_20 RU_2_20 -52.593028
    V_2_20 MUT_2_20 1
    V_2_20 MUT_2_21 1
    V_2_20 MUT_2_22 1
    V_2_20 MUT_2_23 1
    W_2_20 SU_2_20 -1
    W_2_20 RD_2_20 -150
    W_2_20 MDT_2_20 1
    W_2_20 MDT_2_21 1
    W_2_20 MDT_2_22 1
    W_2_20 MDT_2_23 1
    P_2_20 OBJ 55.554351
    P_2_20 DEM_20 1
    P_2_20 PMAX_2_20 1
    P_2_20 PMIN_2_20 1
    P_2_20 RU_2_20 1
    P_2_20 RD_2_20 -1
    P_2_20 RU_2_21 -1
    P_2_20 RD_2_21 1
    MARKER 'MARKER' 'INTORG'
    U_3_20 OBJ 338.3616
    U_3_20 RES_20 200
    U_3_20 PMAX_3_20 -200
    U_3_20 PMIN_3_20 -49.869305
    U_3_20 SU_3_20 -1
    U_3_20 SU_3_21 1
    U_3_20 RU_3_21 -73.8871
    U_3_20 RD_3_20 -73.8871
    U_3_20 MUT_3_20 -1
    U_3_20 MDT_3_20 1
    MARKER 'MARKER' 'INTEND'
    V_3_20 OBJ 6120.6398
    V_3_20 SU_3_20 1
    V_3_20 RU_3_20 -49.869305
    V_3_20 MUT_3_20 1
    V_3_20 MUT_3_21 1
    V_3_20 MUT_3_22 1
    V_3_20 MUT_3_23 1
    W_3_20 SU_3_20 -1
    W_3_20 RD_3_20 -200
    W_3_20 MDT_3_20 1
    W_3_20 MDT_3_21 1
    W_3_20 MDT_3_22 1
    P_3_20 OBJ 22.98464
    P_3_20 DEM_20 1
    P_3_20 PMAX_3_20 1
    P_3_20 PMIN_3_20 1
    P_3_20 RU_3_20 1
    P_3_20 RD_3_20 -1
    P_3_20 RU_3_21 -1
    P_3_20 RD_3_21 1
    MARKER 'MARKER' 'INTORG'
    U_4_20 OBJ 701.07385
    U_4_20 RES_20 300
    U_4_20 PMAX_4_20 -300
    U_4_20 PMIN_4_20 -110.39013
    U_4_20 SU_4_20 -1
    U_4_20 SU_4_21 1
    U_4_20 RU_4_21 -153.04389
    U_4_20 RD_4_20 -153.04389
    U_4_20 MUT_4_20 -1
    U_4_20 MDT_4_20 1
    MARKER 'MARKER' 'INTEND'
    V_4_20 OBJ 13464.078
    V_4_20 SU_4_20 1
    V_4_20 RU_4_20 -110.39013
    V_4_20 MUT_4_20 1
    V_4_20 MUT_4_21 1
    V_4_20 MUT_4_22 1
    W_4_20 SU_4_20 -1
    W_4_20 RD_4_20 -300
    W_4_20 MDT_4_20 1
    W_4_20 MDT_4_21 1
    W_4_20 MDT_4_22 1
    P_4_20 OBJ 59.782995
    P_4_20 DEM_20 1
    P_4_20 PMAX_4_20 1
    P_4_20 PMIN_4_20 1
    P_4_20 RU_4_20 1
    P_4_20 RD_4_20 -1
    P_4_20 RU_4_21 -1
    P_4_20 RD_4_21 1
    MARKER 'MARKER' 'INTORG'
    U_5_20 OBJ 1304.8049
    U_5_20 RES_20 400
    U_5_20 PMAX_5_20 -400
    U_5_20 PMIN_5_20 -195.42811
    U_5_20 SU_5_20 -1
    U_5_20 SU_5_21 1
    U_5_20 RU_5_21 -193.82507
    U_5_20 RD_5_20 -193.82507
    U_5_20 MUT_5_20 -1
    U_5_20 MDT_5_20 1
    MARKER 'MARKER' 'INTEND'
    V_5_20 OBJ 25163.622
    V_5_20 SU_5_20 1
    V_5_20 RU_5_20 -195.42811
    V_5_20 MUT_5_20 1
    V_5_20 MUT_5_21 1
    V_5_20 MUT_5_22 1
    V_5_20 MUT_5_23 1
    W_5_20 SU_5_20 -1
    W_5_20 RD_5_20 -400
    W_5_20 MDT_5_20 1
    W_5_20 MDT_5_21 1
    P_5_20 OBJ 22.253309
    P_5_20 DEM_20 1
    P_5_20 PMAX_5_20 1
    P_5_20 PMIN_5_20 1
    P_5_20 RU_5_20 1
    P_5_20 RD_5_20 -1
    P_5_20 RU_5_21 -1
    P_5_20 RD_5_21 1
    MARKER 'MARKER' 'INTORG'
    U_6_20 OBJ 309.26589
    U_6_20 RES_20 150
    U_6_20 PMAX_6_20 -150
    U_6_20 PMIN_6_20 -52.537848
    U_6_20 SU_6_20 -1
    U_6_20 SU_6_21 1
    U_6_20 RU_6_21 -98.982035
    U_6_20 RD_6_20 -98.982035
    U_6_20 MUT_6_20 -1
    U_6_20 MDT_6_20 1
    MARKER 'MARKER' 'INTEND'
    V_6_20 OBJ 10945.658
    V_6_20 SU_6_20 1
    V_6_20 RU_6_20 -52.537848
    V_6_20 MUT_6_20 1
    V_6_20 MUT_6_21 1
    V_6_20 MUT_6_22 1
    V_6_20 MUT_6_23 1
    W_6_20 SU_6_20 -1
    W_6_20 RD_6_20 -150
    W_6_20 MDT_6_20 1
    W_6_20 MDT_6_21 1
    W_6_20 MDT_6_22 1
    P_6_20 OBJ 52.418602
    P_6_20 DEM_20 1
    P_6_20 PMAX_6_20 1
    P_6_20 PMIN_6_20 1
    P_6_20 RU_6_20 1
    P_6_20 RD_6_20 -1
    P_6_20 RU_6_21 -1
    P_6_20 RD_6_21 1
    MARKER 'MARKER' 'INTORG'
    U_7_20 OBJ 333.08661
    U_7_20 RES_20 200
    U_7_20 PMAX_7_20 -200
    U_7_20 PMIN_7_20 -83.426377
    U_7_20 SU_7_20 -1
    U_7_20 SU_7_21 1
    U_7_20 RU_7_21 -115.96573
    U_7_20 RD_7_20 -115.96573
    U_7_20 MUT_7_20 -1
    U_7_20 MDT_7_20 1
    MARKER 'MARKER' 'INTEND'
    V_7_20 OBJ 7896.0069
    V_7_20 SU_7_20 1
    V_7_20 RU_7_20 -83.426377
    V_7_20 MUT_7_20 1
    V_7_20 MUT_7_21 1
    W_7_20 SU_7_20 -1
    W_7_20 RD_7_20 -200
    W_7_20 MDT_7_20 1
    W_7_20 MDT_7_21 1
    W_7_20 MDT_7_22 1
    P_7_20 OBJ 36.897385
    P_7_20 DEM_20 1
    P_7_20 PMAX_7_20 1
    P_7_20 PMIN_7_20 1
    P_7_20 RU_7_20 1
    P_7_20 RD_7_20 -1
    P_7_20 RU_7_21 -1
    P_7_20 RD_7_21 1
    MARKER 'MARKER' 'INTORG'
    U_8_20 OBJ 467.79261
    U_8_20 RES_20 150
    U_8_20 PMAX_8_20 -150
    U_8_20 PMIN_8_20 -43.930341
    U_8_20 SU_8_20 -1
    U_8_20 SU_8_21 1
    U_8_20 RU_8_21 -76.064865
    U_8_20 RD_8_20 -76.064865
    U_8_20 MUT_8_20 -1
    U_8_20 MDT_8_20 1
    MARKER 'MARKER' 'INTEND'
    V_8_20 OBJ 7538.2394
    V_8_20 SU_8_20 1
    V_8_20 RU_8_20 -43.930341
    V_8_20 MUT_8_20 1
    V_8_20 MUT_8_21 1
    V_8_20 MUT_8_22 1
    V_8_20 MUT_8_23 1
    W_8_20 SU_8_20 -1
    W_8_20 RD_8_20 -150
    W_8_20 MDT_8_20 1
    W_8_20 MDT_8_21 1
    W_8_20 MDT_8_22 1
    W_8_20 MDT_8_23 1
    P_8_20 OBJ 58.081277
    P_8_20 DEM_20 1
    P_8_20 PMAX_8_20 1
    P_8_20 PMIN_8_20 1
    P_8_20 RU_8_20 1
    P_8_20 RD_8_20 -1
    P_8_20 RU_8_21 -1
    P_8_20 RD_8_21 1
    MARKER 'MARKER' 'INTORG'
    U_9_20 OBJ 244.21564
    U_9_20 RES_20 80
    U_9_20 PMAX_9_20 -80
    U_9_20 PMIN_9_20 -27.733755
    U_9_20 SU_9_20 -1
    U_9_20 SU_9_21 1
    U_9_20 RU_9_21 -49.096955
    U_9_20 RD_9_20 -49.096955
    U_9_20 MUT_9_20 -1
    U_9_20 MDT_9_20 1
    MARKER 'MARKER' 'INTEND'
    V_9_20 OBJ 5833.9338
    V_9_20 SU_9_20 1
    V_9_20 RU_9_20 -27.733755
    V_9_20 MUT_9_20 1
    V_9_20 MUT_9_21 1
    V_9_20 MUT_9_22 1
    W_9_20 SU_9_20 -1
    W_9_20 RD_9_20 -80
    W_9_20 MDT_9_20 1
    P_9_20 OBJ 40.945998
    P_9_20 DEM_20 1
    P_9_20 PMAX_9_20 1
    P_9_20 PMIN_9_20 1
    P_9_20 RU_9_20 1
    P_9_20 RD_9_20 -1
    P_9_20 RU_9_21 -1
    P_9_20 RD_9_21 1
    MARKER 'MARKER' 'INTORG'
    U_10_20 OBJ 217.85959
    U_10_20 RES_20 80
    U_10_20 PMAX_10_20 -80
    U_10_20 PMIN_10_20 -39.929646
    U_10_20 SU_10_20 -1
    U_10_20 SU_10_21 1
    U_10_20 RU_10_21 -42.93441
    U_10_20 RD_10_20 -42.93441
    U_10_20 MUT_10_20 -1
    U_10_20 MDT_10_20 1
    MARKER 'MARKER' 'INTEND'
    V_10_20 OBJ 1834.7686
    V_10_20 SU_10_20 1
    V_10_20 RU_10_20 -39.929646
    V_10_20 MUT_10_20 1
    W_10_20 SU_10_20 -1
    W_10_20 RD_10_20 -80
    W_10_20 MDT_10_20 1
    W_10_20 MDT_10_21 1
    P_10_20 OBJ 25.71018
    P_10_20 DEM_20 1
    P_10_20 PMAX_10_20 1
    P_10_20 PMIN_10_20 1
    P_10_20 RU_10_20 1
    P_10_20 RD_10_20 -1
    P_10_20 RU_10_21 -1
    P_10_20 RD_10_21 1
    MARKER 'MARKER' 'INTORG'
    U_11_20 OBJ 94.492357
    U_11_20 RES_20 80
    U_11_20 PMAX_11_20 -80
    U_11_20 PMIN_11_20 -35.79394
    U_11_20 SU_11_20 -1
    U_11_20 SU_11_21 1
    U_11_20 RU_11_21 -48.30109
    U_11_20 RD_11_20 -48.30109
    U_11_20 MUT_11_20 -1
    U_11_20 MDT_11_20 1
    MARKER 'MARKER' 'INTEND'
    V_11_20 OBJ 5910.2458
    V_11_20 SU_11_20 1
    V_11_20 RU_11_20 -35.79394
    V_11_20 MUT_11_20 1
    W_11_20 SU_11_20 -1
    W_11_20 RD_11_20 -80
    W_11_20 MDT_11_20 1
    W_11_20 MDT_11_21 1
    W_11_20 MDT_11_22 1
    P_11_20 OBJ 74.699486
    P_11_20 DEM_20 1
    P_11_20 PMAX_11_20 1
    P_11_20 PMIN_11_20 1
    P_11_20 RU_11_20 1
    P_11_20 RD_11_20 -1
    P_11_20 RU_11_21 -1
    P_11_20 RD_11_21 1
    SHED_20 OBJ 1000
    SHED_20 DEM_20 1
    SHED_20 RES_20 1.1
    MARKER 'MARKER' 'INTORG'
    U_0_21 OBJ 501.84639
    U_0_21 RES_21 400
    U_0_21 PMAX_0_21 -400
    U_0_21 PMIN_0_21 -193.7393
    U_0_21 SU_0_21 -1
    U_0_21 SU_0_22 1
    U_0_21 RU_0_22 -237.7552
    U_0_21 RD_0_21 -237.7552
    U_0_21 MUT_0_21 -1
    U_0_21 MDT_0_21 1
    MARKER 'MARKER' 'INTEND'
    V_0_21 OBJ 28051.973
    V_0_21 SU_0_21 1
    V_0_21 RU_0_21 -193.7393
    V_0_21 MUT_0_21 1
    V_0_21 MUT_0_22 1
    V_0_21 MUT_0_23 1
    W_0_21 SU_0_21 -1
    W_0_21 RD_0_21 -400
    W_0_21 MDT_0_21 1
    W_0_21 MDT_0_22 1
    W_0_21 MDT_0_23 1
    P_0_21 OBJ 17.544812
    P_0_21 DEM_21 1
    P_0_21 PMAX_0_21 1
    P_0_21 PMIN_0_21 1
    P_0_21 RU_0_21 1
    P_0_21 RD_0_21 -1
    P_0_21 RU_0_22 -1
    P_0_21 RD_0_22 1
    MARKER 'MARKER' 'INTORG'
    U_1_21 OBJ 799.83128
    U_1_21 RES_21 200
    U_1_21 PMAX_1_21 -200
    U_1_21 PMIN_1_21 -42.144067
    U_1_21 SU_1_21 -1
    U_1_21 SU_1_22 1
    U_1_21 RU_1_22 -124.29356
    U_1_21 RD_1_21 -124.29356
    U_1_21 MUT_1_21 -1
    U_1_21 MDT_1_21 1
    MARKER 'MARKER' 'INTEND'
    V_1_21 OBJ 11661.656
    V_1_21 SU_1_21 1
    V_1_21 RU_1_21 -42.144067
    V_1_21 MUT_1_21 1
    V_1_21 MUT_1_22 1
    V_1_21 MUT_1_23 1
    W_1_21 SU_1_21 -1
    W_1_21 RD_1_21 -200
    W_1_21 MDT_1_21 1
    W_1_21 MDT_1_22 1
    W_1_21 MDT_1_23 1
    P_1_21 OBJ 45.656078
    P_1_21 DEM_21 1
    P_1_21 PMAX_1_21 1
    P_1_21 PMIN_1_21 1
    P_1_21 RU_1_21 1
    P_1_21 RD_1_21 -1
    P_1_21 RU_1_22 -1
    P_1_21 RD_1_22 1
    MARKER 'MARKER' 'INTORG'
    U_2_21 OBJ 541.96484
    U_2_21 RES_21 150
    U_2_21 PMAX_2_21 -150
    U_2_21 PMIN_2_21 -52.593028
    U_2_21 SU_2_21 -1
    U_2_21 SU_2_22 1
    U_2_21 RU_2_22 -100.91079
    U_2_21 RD_2_21 -100.91079
    U_2_21 MUT_2_21 -1
    U_2_21 MDT_2_21 1
    MARKER 'MARKER' 'INTEND'
    V_2_21 OBJ 6276.1299
    V_2_21 SU_2_21 1
    V_2_21 RU_2_21 -52.593028
    V_2_21 MUT_2_21 1
    V_2_21 MUT_2_22 1
    V_2_21 MUT_2_23 1
    W_2_21 SU_2_21 -1
    W_2_21 RD_2_21 -150
    W_2_21 MDT_2_21 1
    W_2_21 MDT_2_22 1
    W_2_21 MDT_2_23 1
    P_2_21 OBJ 55.554351
    P_2_21 DEM_21 1
    P_2_21 PMAX_2_21 1
    P_2_21 PMIN_2_21 1
    P_2_21 RU_2_21 1
    P_2_21 RD_2_21 -1
    P_2_21 RU_2_22 -1
    P_2_21 RD_2_22 1
    MARKER 'MARKER' 'INTORG'
    U_3_21 OBJ 338.3616
    U_3_21 RES_21 200
    U_3_21 PMAX_3_21 -200
    U_3_21 PMIN_3_21 -49.869305
    U_3_21 SU_3_21 -1
    U_3_21 SU_3_22 1
    U_3_21 RU_3_22 -73.8871
    U_3_21 RD_3_21 -73.8871
    U_3_21 MUT_3_21 -1
    U_3_21 MDT_3_21 1
    MARKER 'MARKER' 'INTEND'
    V_3_21 OBJ 6120.6398
    V_3_21 SU_3_21 1
    V_3_21 RU_3_21 -49.869305
    V_3_21 MUT_3_21 1
    V_3_21 MUT_3_22 1
    V_3_21 MUT_3_23 1
    W_3_21 SU_3_21 -1
    W_3_21 RD_3_21 -200
    W_3_21 MDT_3_21 1
    W_3_21 MDT_3_22 1
    W_3_21 MDT_3_23 1
    P_3_21 OBJ 22.98464
    P_3_21 DEM_21 1
    P_3_21 PMAX_3_21 1
    P_3_21 PMIN_3_21 1
    P_3_21 RU_3_21 1
    P_3_21 RD_3_21 -1
    P_3_21 RU_3_22 -1
    P_3_21 RD_3_22 1
    MARKER 'MARKER' 'INTORG'
    U_4_21 OBJ 701.07385
    U_4_21 RES_21 300
    U_4_21 PMAX_4_21 -300
    U_4_21 PMIN_4_21 -110.39013
    U_4_21 SU_4_21 -1
    U_4_21 SU_4_22 1
    U_4_21 RU_4_22 -153.04389
    U_4_21 RD_4_21 -153.04389
    U_4_21 MUT_4_21 -1
    U_4_21 MDT_4_21 1
    MARKER 'MARKER' 'INTEND'
    V_4_21 OBJ 13464.078
    V_4_21 SU_4_21 1
    V_4_21 RU_4_21 -110.39013
    V_4_21 MUT_4_21 1
    V_4_21 MUT_4_22 1
    V_4_21 MUT_4_23 1
    W_4_21 SU_4_21 -1
    W_4_21 RD_4_21 -300
    W_4_21 MDT_4_21 1
    W_4_21 MDT_4_22 1
    W_4_21 MDT_4_23 1
    P_4_21 OBJ 59.782995
    P_4_21 DEM_21 1
    P_4_21 PMAX_4_21 1
    P_4_21 PMIN_4_21 1
    P_4_21 RU_4_21 1
    P_4_21 RD_4_21 -1
    P_4_21 RU_4_22 -1
    P_4_21 RD_4_22 1
    MARKER 'MARKER' 'INTORG'
    U_5_21 OBJ 1304.8049
    U_5_21 RES_21 400
    U_5_21 PMAX_5_21 -400
    U_5_21 PMIN_5_21 -195.42811
    U_5_21 SU_5_21 -1
    U_5_21 SU_5_22 1
    U_5_21 RU_5_22 -193.82507
    U_5_21 RD_5_21 -193.82507
    U_5_21 MUT_5_21 -1
    U_5_21 MDT_5_21 1
    MARKER 'MARKER' 'INTEND'
    V_5_21 OBJ 25163.622
    V_5_21 SU_5_21 1
    V_5_21 RU_5_21 -195.42811
    V_5_21 MUT_5_21 1
    V_5_21 MUT_5_22 1
    V_5_21 MUT_5_23 1
    W_5_21 SU_5_21 -1
    W_5_21 RD_5_21 -400
    W_5_21 MDT_5_21 1
    W_5_21 MDT_5_22 1
    P_5_21 OBJ 22.253309
    P_5_21 DEM_21 1
    P_5_21 PMAX_5_21 1
    P_5_21 PMIN_5_21 1
    P_5_21 RU_5_21 1
    P_5_21 RD_5_21 -1
    P_5_21 RU_5_22 -1
    P_5_21 RD_5_22 1
    MARKER 'MARKER' 'INTORG'
    U_6_21 OBJ 309.26589
    U_6_21 RES_21 150
    U_6_21 PMAX_6_21 -150
    U_6_21 PMIN_6_21 -52.537848
    U_6_21 SU_6_21 -1
    U_6_21 SU_6_22 1
    U_6_21 RU_6_22 -98.982035
    U_6_21 RD_6_21 -98.982035
    U_6_21 MUT_6_21 -1
    U_6_21 MDT_6_21 1
    MARKER 'MARKER' 'INTEND'
    V_6_21 OBJ 10945.658
    V_6_21 SU_6_21 1
    V_6_21 RU_6_21 -52.537848
    V_6_21 MUT_6_21 1
    V_6_21 MUT_6_22 1
    V_6_21 MUT_6_23 1
    W_6_21 SU_6_21 -1
    W_6_21 RD_6_21 -150
    W_6_21 MDT_6_21 1
    W_6_21 MDT_6_22 1
    W_6_21 MDT_6_23 1
    P_6_21 OBJ 52.418602
    P_6_21 DEM_21 1
    P_6_21 PMAX_6_21 1
    P_6_21 PMIN_6_21 1
    P_6_21 RU_6_21 1
    P_6_21 RD_6_21 -1
    P_6_21 RU_6_22 -1
    P_6_21 RD_6_22 1
    MARKER 'MARKER' 'INTORG'
    U_7_21 OBJ 333.08661
    U_7_21 RES_21 200
    U_7_21 PMAX_7_21 -200
    U_7_21 PMIN_7_21 -83.426377
    U_7_21 SU_7_21 -1
    U_7_21 SU_7_22 1
    U_7_21 RU_7_22 -115.96573
    U_7_21 RD_7_21 -115.96573
    U_7_21 MUT_7_21 -1
    U_7_21 MDT_7_21 1
    MARKER 'MARKER' 'INTEND'
    V_7_21 OBJ 7896.0069
    V_7_21 SU_7_21 1
    V_7_21 RU_7_21 -83.426377
    V_7_21 MUT_7_21 1
    V_7_21 MUT_7_22 1
    W_7_21 SU_7_21 -1
    W_7_21 RD_7_21 -200
    W_7_21 MDT_7_21 1
    W_7_21 MDT_7_22 1
    W_7_21 MDT_7_23 1
    P_7_21 OBJ 36.897385
    P_7_21 DEM_21 1
    P_7_21 PMAX_7_21 1
    P_7_21 PMIN_7_21 1
    P_7_21 RU_7_21 1
    P_7_21 RD_7_21 -1
    P_7_21 RU_7_22 -1
    P_7_21 RD_7_22 1
    MARKER 'MARKER' 'INTORG'
    U_8_21 OBJ 467.79261
    U_8_21 RES_21 150
    U_8_21 PMAX_8_21 -150
    U_8_21 PMIN_8_21 -43.930341
    U_8_21 SU_8_21 -1
    U_8_21 SU_8_22 1
    U_8_21 RU_8_22 -76.064865
    U_8_21 RD_8_21 -76.064865
    U_8_21 MUT_8_21 -1
    U_8_21 MDT_8_21 1
    MARKER 'MARKER' 'INTEND'
    V_8_21 OBJ 7538.2394
    V_8_21 SU_8_21 1
    V_8_21 RU_8_21 -43.930341
    V_8_21 MUT_8_21 1
    V_8_21 MUT_8_22 1
    V_8_21 MUT_8_23 1
    W_8_21 SU_8_21 -1
    W_8_21 RD_8_21 -150
    W_8_21 MDT_8_21 1
    W_8_21 MDT_8_22 1
    W_8_21 MDT_8_23 1
    P_8_21 OBJ 58.081277
    P_8_21 DEM_21 1
    P_8_21 PMAX_8_21 1
    P_8_21 PMIN_8_21 1
    P_8_21 RU_8_21 1
    P_8_21 RD_8_21 -1
    P_8_21 RU_8_22 -1
    P_8_21 RD_8_22 1
    MARKER 'MARKER' 'INTORG'
    U_9_21 OBJ 244.21564
    U_9_21 RES_21 80
    U_9_21 PMAX_9_21 -80
    U_9_21 PMIN_9_21 -27.733755
    U_9_21 SU_9_21 -1
    U_9_21 SU_9_22 1
    U_9_21 RU_9_22 -49.096955
    U_9_21 RD_9_21 -49.096955
    U_9_21 MUT_9_21 -1
    U_9_21 MDT_9_21 1
    MARKER 'MARKER' 'INTEND'
    V_9_21 OBJ 5833.9338
    V_9_21 SU_9_21 1
    V_9_21 RU_9_21 -27.733755
    V_9_21 MUT_9_21 1
    V_9_21 MUT_9_22 1
    V_9_21 MUT_9_23 1
    W_9_21 SU_9_21 -1
    W_9_21 RD_9_21 -80
    W_9_21 MDT_9_21 1
    P_9_21 OBJ 40.945998
    P_9_21 DEM_21 1
    P_9_21 PMAX_9_21 1
    P_9_21 PMIN_9_21 1
    P_9_21 RU_9_21 1
    P_9_21 RD_9_21 -1
    P_9_21 RU_9_22 -1
    P_9_21 RD_9_22 1
    MARKER 'MARKER' 'INTORG'
    U_10_21 OBJ 217.85959
    U_10_21 RES_21 80
    U_10_21 PMAX_10_21 -80
    U_10_21 PMIN_10_21 -39.929646
    U_10_21 SU_10_21 -1
    U_10_21 SU_10_22 1
    U_10_21 RU_10_22 -42.93441
    U_10_21 RD_10_21 -42.93441
    U_10_21 MUT_10_21 -1
    U_10_21 MDT_10_21 1
    MARKER 'MARKER' 'INTEND'
    V_10_21 OBJ 1834.7686
    V_10_21 SU_10_21 1
    V_10_21 RU_10_21 -39.929646
    V_10_21 MUT_10_21 1
    W_10_21 SU_10_21 -1
    W_10_21 RD_10_21 -80
    W_10_21 MDT_10_21 1
    W_10_21 MDT_10_22 1
    P_10_21 OBJ 25.71018
    P_10_21 DEM_21 1
    P_10_21 PMAX_10_21 1
    P_10_21 PMIN_10_21 1
    P_10_21 RU_10_21 1
    P_10_21 RD_10_21 -1
    P_10_21 RU_10_22 -1
    P_10_21 RD_10_22 1
    MARKER 'MARKER' 'INTORG'
    U_11_21 OBJ 94.492357
    U_11_21 RES_21 80
    U_11_21 PMAX_11_21 -80
    U_11_21 PMIN_11_21 -35.79394
    U_11_21 SU_11_21 -1
    U_11_21 SU_11_22 1
    U_11_21 RU_11_22 -48.30109
    U_11_21 RD_11_21 -48.30109
    U_11_21 MUT_11_21 -1
    U_11_21 MDT_11_21 1
    MARKER 'MARKER' 'INTEND'
    V_11_21 OBJ 5910.2458
    V_11_21 SU_11_21 1
    V_11_21 RU_11_21 -35.79394
    V_11_21 MUT_11_21 1
    W_11_21 SU_11_21 -1
    W_11_21 RD_11_21 -80
    W_11_21 MDT_11_21 1
    W_11_21 MDT_11_22 1
    W_11_21 MDT_11_23 1
    P_11_21 OBJ 74.699486
    P_11_21 DEM_21 1
    P_11_21 PMAX_11_21 1
    P_11_21 PMIN_11_21 1
    P_11_21 RU_11_21 1
    P_11_21 RD_11_21 -1
    P_11_21 RU_11_22 -1
    P_11_21 RD_11_22 1
    SHED_21 OBJ 1000
    SHED_21 DEM_21 1
    SHED_21 RES_21 1.1
    MARKER 'MARKER' 'INTORG'
    U_0_22 OBJ 501.84639
    U_0_22 RES_22 400
    U_0_22 PMAX_0_22 -400
    U_0_22 PMIN_0_22 -193.7393
    U_0_22 SU_0_22 -1
    U_0_22 SU_0_23 1
    U_0_22 RU_0_23 -237.7552
    U_0_22 RD_0_22 -237.7552
    U_0_22 MUT_0_22 -1
    U_0_22 MDT_0_22 1
    MARKER 'MARKER' 'INTEND'
    V_0_22 OBJ 28051.973
    V_0_22 SU_0_22 1
    V_0_22 RU_0_22 -193.7393
    V_0_22 MUT_0_22 1
    V_0_22 MUT_0_23 1
    W_0_22 SU_0_22 -1
    W_0_22 RD_0_22 -400
    W_0_22 MDT_0_22 1
    W_0_22 MDT_0_23 1
    P_0_22 OBJ 17.544812
    P_0_22 DEM_22 1
    P_0_22 PMAX_0_22 1
    P_0_22 PMIN_0_22 1
    P_0_22 RU_0_22 1
    P_0_22 RD_0_22 -1
    P_0_22 RU_0_23 -1
    P_0_22 RD_0_23 1
    MARKER 'MARKER' 'INTORG'
    U_1_22 OBJ 799.83128
    U_1_22 RES_22 200
    U_1_22 PMAX_1_22 -200
    U_1_22 PMIN_1_22 -42.144067
    U_1_22 SU_1_22 -1
    U_1_22 SU_1_23 1
    U_1_22 RU_1_23 -124.29356
    U_1_22 RD_1_22 -124.29356
    U_1_22 MUT_1_22 -1
    U_1_22 MDT_1_22 1
    MARKER 'MARKER' 'INTEND'
    V_1_22 OBJ 11661.656
    V_1_22 SU_1_22 1
    V_1_22 RU_1_22 -42.144067
    V_1_22 MUT_1_22 1
    V_1_22 MUT_1_23 1
    W_1_22 SU_1_22 -1
    W_1_22 RD_1_22 -200
    W_1_22 MDT_1_22 1
    W_1_22 MDT_1_23 1
    P_1_22 OBJ 45.656078
    P_1_22 DEM_22 1
    P_1_22 PMAX_1_22 1
    P_1_22 PMIN_1_22 1
    P_1_22 RU_1_22 1
    P_1_22 RD_1_22 -1
    P_1_22 RU_1_23 -1
    P_1_22 RD_1_23 1
    MARKER 'MARKER' 'INTORG'
    U_2_22 OBJ 541.96484
    U_2_22 RES_22 150
    U_2_22 PMAX_2_22 -150
    U_2_22 PMIN_2_22 -52.593028
    U_2_22 SU_2_22 -1
    U_2_22 SU_2_23 1
    U_2_22 RU_2_23 -100.91079
    U_2_22 RD_2_22 -100.91079
    U_2_22 MUT_2_22 -1
    U_2_22 MDT_2_22 1
    MARKER 'MARKER' 'INTEND'
    V_2_22 OBJ 6276.1299
    V_2_22 SU_2_22 1
    V_2_22 RU_2_22 -52.593028
    V_2_22 MUT_2_22 1
    V_2_22 MUT_2_23 1
    W_2_22 SU_2_22 -1
    W_2_22 RD_2_22 -150
    W_2_22 MDT_2_22 1
    W_2_22 MDT_2_23 1
    P_2_22 OBJ 55.554351
    P_2_22 DEM_22 1
    P_2_22 PMAX_2_22 1
    P_2_22 PMIN_2_22 1
    P_2_22 RU_2_22 1
    P_2_22 RD_2_22 -1
    P_2_22 RU_2_23 -1
    P_2_22 RD_2_23 1
    MARKER 'MARKER' 'INTORG'
    U_3_22 OBJ 338.3616
    U_3_22 RES_22 200
    U_3_22 PMAX_3_22 -200
    U_3_22 PMIN_3_22 -49.869305
    U_3_22 SU_3_22 -1
    U_3_22 SU_3_23 1
    U_3_22 RU_3_23 -73.8871
    U_3_22 RD_3_22 -73.8871
    U_3_22 MUT_3_22 -1
    U_3_22 MDT_3_22 1
    MARKER 'MARKER' 'INTEND'
    V_3_22 OBJ 6120.6398
    V_3_22 SU_3_22 1
    V_3_22 RU_3_22 -49.869305
    V_3_22 MUT_3_22 1
    V_3_22 MUT_3_23 1
    W_3_22 SU_3_22 -1
    W_3_22 RD_3_22 -200
    W_3_22 MDT_3_22 1
    W_3_22 MDT_3_23 1
    P_3_22 OBJ 22.98464
    P_3_22 DEM_22 1
    P_3_22 PMAX_3_22 1
    P_3_22 PMIN_3_22 1
    P_3_22 RU_3_22 1
    P_3_22 RD_3_22 -1
    P_3_22 RU_3_23 -1
    P_3_22 RD_3_23 1
    MARKER 'MARKER' 'INTORG'
    U_4_22 OBJ 701.07385
    U_4_22 RES_22 300
    U_4_22 PMAX_4_22 -300
    U_4_22 PMIN_4_22 -110.39013
    U_4_22 SU_4_22 -1
    U_4_22 SU_4_23 1
    U_4_22 RU_4_23 -153.04389
    U_4_22 RD_4_22 -153.04389
    U_4_22 MUT_4_22 -1
    U_4_22 MDT_4_22 1
    MARKER 'MARKER' 'INTEND'
    V_4_22 OBJ 13464.078
    V_4_22 SU_4_22 1
    V_4_22 RU_4_22 -110.39013
    V_4_22 MUT_4_22 1
    V_4_22 MUT_4_23 1
    W_4_22 SU_4_22 -1
    W_4_22 RD_4_22 -300
    W_4_22 MDT_4_22 1
    W_4_22 MDT_4_23 1
    P_4_22 OBJ 59.782995
    P_4_22 DEM_22 1
    P_4_22 PMAX_4_22 1
    P_4_22 PMIN_4_22 1
    P_4_22 RU_4_22 1
    P_4_22 RD_4_22 -1
    P_4_22 RU_4_23 -1
    P_4_22 RD_4_23 1
    MARKER 'MARKER' 'INTORG'
    U_5_22 OBJ 1304.8049
    U_5_22 RES_22 400
    U_5_22 PMAX_5_22 -400
    U_5_22 PMIN_5_22 -195.42811
    U_5_22 SU_5_22 -1
    U_5_22 SU_5_23 1
    U_5_22 RU_5_23 -193.82507
    U_5_22 RD_5_22 -193.82507
    U_5_22 MUT_5_22 -1
    U_5_22 MDT_5_22 1
    MARKER 'MARKER' 'INTEND'
    V_5_22 OBJ 25163.622
    V_5_22 SU_5_22 1
    V_5_22 RU_5_22 -195.42811
    V_5_22 MUT_5_22 1
    V_5_22 MUT_5_23 1
    W_5_22 SU_5_22 -1
    W_5_22 RD_5_22 -400
    W_5_22 MDT_5_22 1
    W_5_22 MDT_5_23 1
    P_5_22 OBJ 22.253309
    P_5_22 DEM_22 1
    P_5_22 PMAX_5_22 1
    P_5_22 PMIN_5_22 1
    P_5_22 RU_5_22 1
    P_5_22 RD_5_22 -1
    P_5_22 RU_5_23 -1
    P_5_22 RD_5_23 1
    MARKER 'MARKER' 'INTORG'
    U_6_22 OBJ 309.26589
    U_6_22 RES_22 150
    U_6_22 PMAX_6_22 -150
    U_6_22 PMIN_6_22 -52.537848
    U_6_22 SU_6_22 -1
    U_6_22 SU_6_23 1
    U_6_22 RU_6_23 -98.982035
    U_6_22 RD_6_22 -98.982035
    U_6_22 MUT_6_22 -1
    U_6_22 MDT_6_22 1
    MARKER 'MARKER' 'INTEND'
    V_6_22 OBJ 10945.658
    V_6_22 SU_6_22 1
    V_6_22 RU_6_22 -52.537848
    V_6_22 MUT_6_22 1
    V_6_22 MUT_6_23 1
    W_6_22 SU_6_22 -1
    W_6_22 RD_6_22 -150
    W_6_22 MDT_6_22 1
    W_6_22 MDT_6_23 1
    P_6_22 OBJ 52.418602
    P_6_22 DEM_22 1
    P_6_22 PMAX_6_22 1
    P_6_22 PMIN_6_22 1
    P_6_22 RU_6_22 1
    P_6_22 RD_6_22 -1
    P_6_22 RU_6_23 -1
    P_6_22 RD_6_23 1
    MARKER 'MARKER' 'INTORG'
    U_7_22 OBJ 333.08661
    U_7_22 RES_22 200
    U_7_22 PMAX_7_22 -200
    U_7_22 PMIN_7_22 -83.426377
    U_7_22 SU_7_22 -1
    U_7_22 SU_7_23 1
    U_7_22 RU_7_23 -115.96573
    U_7_22 RD_7_22 -115.96573
    U_7_22 MUT_7_22 -1
    U_7_22 MDT_7_22 1
    MARKER 'MARKER' 'INTEND'
    V_7_22 OBJ 7896.0069
    V_7_22 SU_7_22 1
    V_7_22 RU_7_22 -83.426377
    V_7_22 MUT_7_22 1
    V_7_22 MUT_7_23 1
    W_7_22 SU_7_22 -1
    W_7_22 RD_7_22 -200
    W_7_22 MDT_7_22 1
    W_7_22 MDT_7_23 1
    P_7_22 OBJ 36.897385
    P_7_22 DEM_22 1
    P_7_22 PMAX_7_22 1
    P_7_22 PMIN_7_22 1
    P_7_22 RU_7_22 1
    P_7_22 RD_7_22 -1
    P_7_22 RU_7_23 -1
    P_7_22 RD_7_23 1
    MARKER 'MARKER' 'INTORG'
    U_8_22 OBJ 467.79261
    U_8_22 RES_22 150
    U_8_22 PMAX_8_22 -150
    U_8_22 PMIN_8_22 -43.930341
    U_8_22 SU_8_22 -1
    U_8_22 SU_8_23 1
    U_8_22 RU_8_23 -76.064865
    U_8_22 RD_8_22 -76.064865
    U_8_22 MUT_8_22 -1
    U_8_22 MDT_8_22 1
    MARKER 'MARKER' 'INTEND'
    V_8_22 OBJ 7538.2394
    V_8_22 SU_8_22 1
    V_8_22 RU_8_22 -43.930341
    V_8_22 MUT_8_22 1
    V_8_22 MUT_8_23 1
    W_8_22 SU_8_22 -1
    W_8_22 RD_8_22 -150
    W_8_22 MDT_8_22 1
    W_8_22 MDT_8_23 1
    P_8_22 OBJ 58.081277
    P_8_22 DEM_22 1
    P_8_22 PMAX_8_22 1
    P_8_22 PMIN_8_22 1
    P_8_22 RU_8_22 1
    P_8_22 RD_8_22 -1
    P_8_22 RU_8_23 -1
    P_8_22 RD_8_23 1
    MARKER 'MARKER' 'INTORG'
    U_9_22 OBJ 244.21564
    U_9_22 RES_22 80
    U_9_22 PMAX_9_22 -80
    U_9_22 PMIN_9_22 -27.733755
    U_9_22 SU_9_22 -1
    U_9_22 SU_9_23 1
    U_9_22 RU_9_23 -49.096955
    U_9_22 RD_9_22 -49.096955
    U_9_22 MUT_9_22 -1
    U_9_22 MDT_9_22 1
    MARKER 'MARKER' 'INTEND'
    V_9_22 OBJ 5833.9338
    V_9_22 SU_9_22 1
    V_9_22 RU_9_22 -27.733755
    V_9_22 MUT_9_22 1
    V_9_22 MUT_9_23 1
    W_9_22 SU_9_22 -1
    W_9_22 RD_9_22 -80
    W_9_22 MDT_9_22 1
    P_9_22 OBJ 40.945998
    P_9_22 DEM_22 1
    P_9_22 PMAX_9_22 1
    P_9_22 PMIN_9_22 1
    P_9_22 RU_9_22 1
    P_9_22 RD_9_22 -1
    P_9_22 RU_9_23 -1
    P_9_22 RD_9_23 1
    MARKER 'MARKER' 'INTORG'
    U_10_22 OBJ 217.85959
    U_10_22 RES_22 80
    U_10_22 PMAX_10_22 -80
    U_10_22 PMIN_10_22 -39.929646
    U_10_22 SU_10_22 -1
    U_10_22 SU_10_23 1
    U_10_22 RU_10_23 -42.93441
    U_10_22 RD_10_22 -42.93441
    U_10_22 MUT_10_22 -1
    U_10_22 MDT_10_22 1
    MARKER 'MARKER' 'INTEND'
    V_10_22 OBJ 1834.7686
    V_10_22 SU_10_22 1
    V_10_22 RU_10_22 -39.929646
    V_10_22 MUT_10_22 1
    W_10_22 SU_10_22 -1
    W_10_22 RD_10_22 -80
    W_10_22 MDT_10_22 1
    W_10_22 MDT_10_23 1
    P_10_22 OBJ 25.71018
    P_10_22 DEM_22 1
    P_10_22 PMAX_10_22 1
    P_10_22 PMIN_10_22 1
    P_10_22 RU_10_22 1
    P_10_22 RD_10_22 -1
    P_10_22 RU_10_23 -1
    P_10_22 RD_10_23 1
    MARKER 'MARKER' 'INTORG'
    U_11_22 OBJ 94.492357
    U_11_22 RES_22 80
    U_11_22 PMAX_11_22 -80
    U_11_22 PMIN_11_22 -35.79394
    U_11_22 SU_11_22 -1
    U_11_22 SU_11_23 1
    U_11_22 RU_11_23 -48.30109
    U_11_22 RD_11_22 -48.30109
    U_11_22 MUT_11_22 -1
    U_11_22 MDT_11_22 1
    MARKER 'MARKER' 'INTEND'
    V_11_22 OBJ 5910.2458
    V_11_22 SU_11_22 1
    V_11_22 RU_11_22 -35.79394
    V_11_22 MUT_11_22 1
    W_11_22 SU_11_22 -1
    W_11_22 RD_11_22 -80
    W_11_22 MDT_11_22 1
    W_11_22 MDT_11_23 1
    P_11_22 OBJ 74.699486
    P_11_22 DEM_22 1
    P_11_22 PMAX_11_22 1
    P_11_22 PMIN_11_22 1
    P_11_22 RU_11_22 1
    P_11_22 RD_11_22 -1
    P_11_22 RU_11_23 -1
    P_11_22 RD_11_23 1
    SHED_22 OBJ 1000
    SHED_22 DEM_22 1
    SHED_22 RES_22 1.1
    MARKER 'MARKER' 'INTORG'
    U_0_23 OBJ 501.84639
    U_0_23 RES_23 400
    U_0_23 PMAX_0_23 -400
    U_0_23 PMIN_0_23 -193.7393
    U_0_23 SU_0_23 -1
    U_0_23 RD_0_23 -237.7552
    U_0_23 MUT_0_23 -1
    U_0_23 MDT_0_23 1
    MARKER 'MARKER' 'INTEND'
    V_0_23 OBJ 28051.973
    V_0_23 SU_0_23 1
    V_0_23 RU_0_23 -193.7393
    V_0_23 MUT_0_23 1
    W_0_23 SU_0_23 -1
    W_0_23 RD_0_23 -400
    W_0_23 MDT_0_23 1
    P_0_23 OBJ 17.544812
    P_0_23 DEM_23 1
    P_0_23 PMAX_0_23 1
    P_0_23 PMIN_0_23 1
    P_0_23 RU_0_23 1
    P_0_23 RD_0_23 -1
    MARKER 'MARKER' 'INTORG'
    U_1_23 OBJ 799.83128
    U_1_23 RES_23 200
    U_1_23 PMAX_1_23 -200
    U_1_23 PMIN_1_23 -42.144067
    U_1_23 SU_1_23 -1
    U_1_23 RD_1_23 -124.29356
    U_1_23 MUT_1_23 -1
    U_1_23 MDT_1_23 1
    MARKER 'MARKER' 'INTEND'
    V_1_23 OBJ 11661.656
    V_1_23 SU_1_23 1
    V_1_23 RU_1_23 -42.144067
    V_1_23 MUT_1_23 1
    W_1_23 SU_1_23 -1
    W_1_23 RD_1_23 -200
    W_1_23 MDT_1_23 1
    P_1_23 OBJ 45.656078
    P_1_23 DEM_23 1
    P_1_23 PMAX_1_23 1
    P_1_23 PMIN_1_23 1
    P_1_23 RU_1_23 1
    P_1_23 RD_1_23 -1
    MARKER 'MARKER' 'INTORG'
    U_2_23 OBJ 541.96484
    U_2_23 RES_23 150
    U_2_23 PMAX_2_23 -150
    U_2_23 PMIN_2_23 -52.593028
    U_2_23 SU_2_23 -1
    U_2_23 RD_2_23 -100.91079
    U_2_23 MUT_2_23 -1
    U_2_23 MDT_2_23 1
    MARKER 'MARKER' 'INTEND'
    V_2_23 OBJ 6276.1299
    V_2_23 SU_2_23 1
    V_2_23 RU_2_23 -52.593028
    V_2_23 MUT_2_23 1
    W_2_23 SU_2_23 -1
    W_2_23 RD_2_23 -150
    W_2_23 MDT_2_23 1
    P_2_23 OBJ 55.554351
    P_2_23 DEM_23 1
    P_2_23 PMAX_2_23 1
    P_2_23 PMIN_2_23 1
    P_2_23 RU_2_23 1
    P_2_23 RD_2_23 -1
    MARKER 'MARKER' 'INTORG'
    U_3_23 OBJ 338.3616
    U_3_23 RES_23 200
    U_3_23 PMAX_3_23 -200
    U_3_23 PMIN_3_23 -49.869305
    U_3_23 SU_3_23 -1
    U_3_23 RD_3_23 -73.8871
    U_3_23 MUT_3_23 -1
    U_3_23 MDT_3_23 1
    MARKER 'MARKER' 'INTEND'
    V_3_23 OBJ 6120.6398
    V_3_23 SU_3_23 1
    V_3_23 RU_3_23 -49.869305
    V_3_23 MUT_3_23 1
    W_3_23 SU_3_23 -1
    W_3_23 RD_3_23 -200
    W_3_23 MDT_3_23 1
    P_3_23 OBJ 22.98464
    P_3_23 DEM_23 1
    P_3_23 PMAX_3_23 1
    P_3_23 PMIN_3_23 1
    P_3_23 RU_3_23 1
    P_3_23 RD_3_23 -1
    MARKER 'MARKER' 'INTORG'
    U_4_23 OBJ 701.07385
    U_4_23 RES_23 300
    U_4_23 PMAX_4_23 -300
    U_4_23 PMIN_4_23 -110.39013
    U_4_23 SU_4_23 -1
    U_4_23 RD_4_23 -153.04389
    U_4_23 MUT_4_23 -1
    U_4_23 MDT_4_23 1
    MARKER 'MARKER' 'INTEND'
    V_4_23 OBJ 13464.078
    V_4_23 SU_4_23 1
    V_4_23 RU_4_23 -110.39013
    V_4_23 MUT_4_23 1
    W_4_23 SU_4_23 -1
    W_4_23 RD_4_23 -300
    W_4_23 MDT_4_23 1
    P_4_23 OBJ 59.782995
    P_4_23 DEM_23 1
    P_4_23 PMAX_4_23 1
    P_4_23 PMIN_4_23 1
    P_4_23 RU_4_23 1
    P_4_23 RD_4_23 -1
    MARKER 'MARKER' 'INTORG'
    U_5_23 OBJ 1304.8049
    U_5_23 RES_23 400
    U_5_23 PMAX_5_23 -400
    U_5_23 PMIN_5_23 -195.42811
    U_5_23 SU_5_23 -1
    U_5_23 RD_5_23 -193.82507
    U_5_23 MUT_5_23 -1
    U_5_23 MDT_5_23 1
    MARKER 'MARKER' 'INTEND'
    V_5_23 OBJ 25163.622
    V_5_23 SU_5_23 1
    V_5_23 RU_5_23 -195.42811
    V_5_23 MUT_5_23 1
    W_5_23 SU_5_23 -1
    W_5_23 RD_5_23 -400
    W_5_23 MDT_5_23 1
    P_5_23 OBJ 22.253309
    P_5_23 DEM_23 1
    P_5_23 PMAX_5_23 1
    P_5_23 PMIN_5_23 1
    P_5_23 RU_5_23 1
    P_5_23 RD_5_23 -1
    MARKER 'MARKER' 'INTORG'
    U_6_23 OBJ 309.26589
    U_6_23 RES_23 150
    U_6_23 PMAX_6_23 -150
    U_6_23 PMIN_6_23 -52.537848
    U_6_23 SU_6_23 -1
    U_6_23 RD_6_23 -98.982035
    U_6_23 MUT_6_23 -1
    U_6_23 MDT_6_23 1
    MARKER 'MARKER' 'INTEND'
    V_6_23 OBJ 10945.658
    V_6_23 SU_6_23 1
    V_6_23 RU_6_23 -52.537848
    V_6_23 MUT_6_23 1
    W_6_23 SU_6_23 -1
    W_6_23 RD_6_23 -150
    W_6_23 MDT_6_23 1
    P_6_23 OBJ 52.418602
    P_6_23 DEM_23 1
    P_6_23 PMAX_6_23 1
    P_6_23 PMIN_6_23 1
    P_6_23 RU_6_23 1
    P_6_23 RD_6_23 -1
    MARKER 'MARKER' 'INTORG'
    U_7_23 OBJ 333.08661
    U_7_23 RES_23 200
    U_7_23 PMAX_7_23 -200
    U_7_23 PMIN_7_23 -83.426377
    U_7_23 SU_7_23 -1
    U_7_23 RD_7_23 -115.96573
    U_7_23 MUT_7_23 -1
    U_7_23 MDT_7_23 1
    MARKER 'MARKER' 'INTEND'
    V_7_23 OBJ 7896.0069
    V_7_23 SU_7_23 1
    V_7_23 RU_7_23 -83.426377
    V_7_23 MUT_7_23 1
    W_7_23 SU_7_23 -1
    W_7_23 RD_7_23 -200
    W_7_23 MDT_7_23 1
    P_7_23 OBJ 36.897385
    P_7_23 DEM_23 1
    P_7_23 PMAX_7_23 1
    P_7_23 PMIN_7_23 1
    P_7_23 RU_7_23 1
    P_7_23 RD_7_23 -1
    MARKER 'MARKER' 'INTORG'
    U_8_23 OBJ 467.79261
    U_8_23 RES_23 150
    U_8_23 PMAX_8_23 -150
    U_8_23 PMIN_8_23 -43.930341
    U_8_23 SU_8_23 -1
    U_8_23 RD_8_23 -76.064865
    U_8_23 MUT_8_23 -1
    U_8_23 MDT_8_23 1
    MARKER 'MARKER' 'INTEND'
    V_8_23 OBJ 7538.2394
    V_8_23 SU_8_23 1
    V_8_23 RU_8_23 -43.930341
    V_8_23 MUT_8_23 1
    W_8_23 SU_8_23 -1
    W_8_23 RD_8_23 -150
    W_8_23 MDT_8_23 1
    P_8_23 OBJ 58.081277
    P_8_23 DEM_23 1
    P_8_23 PMAX_8_23 1
    P_8_23 PMIN_8_23 1
    P_8_23 RU_8_23 1
    P_8_23 RD_8_23 -1
    MARKER 'MARKER' 'INTORG'
    U_9_23 OBJ 244.21564
    U_9_23 RES_23 80
    U_9_23 PMAX_9_23 -80
    U_9_23 PMIN_9_23 -27.733755
    U_9_23 SU_9_23 -1
    U_9_23 RD_9_23 -49.096955
    U_9_23 MUT_9_23 -1
    U_9_23 MDT_9_23 1
    MARKER 'MARKER' 'INTEND'
    V_9_23 OBJ 5833.9338
    V_9_23 SU_9_23 1
    V_9_23 RU_9_23 -27.733755
    V_9_23 MUT_9_23 1
    W_9_23 SU_9_23 -1
    W_9_23 RD_9_23 -80
    W_9_23 MDT_9_23 1
    P_9_23 OBJ 40.945998
    P_9_23 DEM_23 1
    P_9_23 PMAX_9_23 1
    P_9_23 PMIN_9_23 1
    P_9_23 RU_9_23 1
    P_9_23 RD_9_23 -1
    MARKER 'MARKER' 'INTORG'
    U_10_23 OBJ 217.85959
    U_10_23 RES_23 80
    U_10_23 PMAX_10_23 -80
    U_10_23 PMIN_10_23 -39.929646
    U_10_23 SU_10_23 -1
    U_10_23 RD_10_23 -42.93441
    U_10_23 MUT_10_23 -1
    U_10_23 MDT_10_23 1
    MARKER 'MARKER' 'INTEND'
    V_10_23 OBJ 1834.7686
    V_10_23 SU_10_23 1
    V_10_23 RU_10_23 -39.929646
    V_10_23 MUT_10_23 1
    W_10_23 SU_10_23 -1
    W_10_23 RD_10_23 -80
    W_10_23 MDT_10_23 1
    P_10_23 OBJ 25.71018
    P_10_23 DEM_23 1
    P_10_23 PMAX_10_23 1
    P_10_23 PMIN_10_23 1
    P_10_23 RU_10_23 1
    P_10_23 RD_10_23 -1
    MARKER 'MARKER' 'INTORG'
    U_11_23 OBJ 94.492357
    U_11_23 RES_23 80
    U_11_23 PMAX_11_23 -80
    U_11_23 PMIN_11_23 -35.79394
    U_11_23 SU_11_23 -1
    U_11_23 RD_11_23 -48.30109
    U_11_23 MUT_11_23 -1
    U_11_23 MDT_11_23 1
    MARKER 'MARKER' 'INTEND'
    V_11_23 OBJ 5910.2458
    V_11_23 SU_11_23 1
    V_11_23 RU_11_23 -35.79394
    V_11_23 MUT_11_23 1
    W_11_23 SU_11_23 -1
    W_11_23 RD_11_23 -80
    W_11_23 MDT_11_23 1
    P_11_23 OBJ 74.699486
    P_11_23 DEM_23 1
    P_11_23 PMAX_11_23 1
    P_11_23 PMIN_11_23 1
    P_11_23 RU_11_23 1
    P_11_23 RD_11_23 -1
    SHED_23 OBJ 1000
    SHED_23 DEM_23 1
    SHED_23 RES_23 1.1
RHS
    RHS DEM_0 932.05236
    RHS RES_0 1025.2576
    RHS MDT_0_0 1
    RHS MDT_1_0 1
    RHS MDT_2_0 1
    RHS MDT_3_0 1
    RHS SU_4_0 -1
    RHS MDT_4_0 1
    RHS SU_5_0 -1
    RHS MDT_5_0 1
    RHS MDT_6_0 1
    RHS MDT_7_0 1
    RHS SU_8_0 -1
    RHS MDT_8_0 1
    RHS MDT_9_0 1
    RHS MDT_10_0 1
    RHS SU_11_0 -1
    RHS MDT_11_0 1
    RHS DEM_1 910.44112
    RHS RES_1 1001.4852
    RHS MDT_0_1 1
    RHS MDT_1_1 1
    RHS MDT_2_1 1
    RHS MDT_3_1 1
    RHS MDT_4_1 1
    RHS MDT_5_1 1
    RHS MDT_6_1 1
    RHS MDT_7_1 1
    RHS MDT_8_1 1
    RHS MDT_9_1 1
    RHS MDT_10_1 1
    RHS MDT_11_1 1
    RHS DEM_2 919.21533
    RHS RES_2 1011.1369
    RHS MDT_0_2 1
    RHS MDT_1_2 1
    RHS MDT_2_2 1
    RHS MDT_3_2 1
    RHS MDT_4_2 1
    RHS MDT_5_2 1
    RHS MDT_6_2 1
    RHS MDT_7_2 1
    RHS MDT_8_2 1
    RHS MDT_9_2 1
    RHS MDT_10_2 1
    RHS MDT_11_2 1
    RHS DEM_3 914.64981
    RHS RES_3 1006.1148
    RHS MDT_0_3 1
    RHS MDT_1_3 1
    RHS MDT_2_3 1
    RHS MDT_3_3 1
    RHS MDT_4_3 1
    RHS MDT_5_3 1
    RHS MDT_6_3 1
    RHS MDT_7_3 1
    RHS MDT_8_3 1
    RHS MDT_9_3 1
    RHS MDT_10_3 1
    RHS MDT_11_3 1
    RHS DEM_4 912.10761
    RHS RES_4 1003.3184
    RHS MDT_0_4 1
    RHS MDT_1_4 1
    RHS MDT_2_4 1
    RHS MDT_3_4 1
    RHS MDT_4_4 1
    RHS MDT_5_4 1
    RHS MDT_6_4 1
    RHS MDT_7_4 1
    RHS MDT_8_4 1
    RHS MDT_9_4 1
    RHS MDT_10_4 1
    RHS MDT_11_4 1
    RHS DEM_5 996.02103
    RHS RES_5 1095.6231
    RHS MDT_0_5 1
    RHS MDT_1_5 1
    RHS MDT_2_5 1
    RHS MDT_3_5 1
    RHS MDT_4_5 1
    RHS MDT_5_5 1
    RHS MDT_6_5 1
    RHS MDT_7_5 1
    RHS MDT_8_5 1
    RHS MDT_9_5 1
    RHS MDT_10_5 1
    RHS MDT_11_5 1
    RHS DEM_6 943.8681
    RHS RES_6 1038.2549
    RHS MDT_0_6 1
    RHS MDT_1_6 1
    RHS MDT_2_6 1
    RHS MDT_3_6 1
    RHS MDT_4_6 1
    RHS MDT_5_6 1
    RHS MDT_6_6 1
    RHS MDT_7_6 1
    RHS MDT_8_6 1
    RHS MDT_9_6 1
    RHS MDT_10_6 1
    RHS MDT_11_6 1
    RHS DEM_7 1115.3246
    RHS RES_7 1226.8571
    RHS MDT_0_7 1
    RHS MDT_1_7 1
    RHS MDT_2_7 1
    RHS MDT_3_7 1
    RHS MDT_4_7 1
    RHS MDT_5_7 1
    RHS MDT_6_7 1
    RHS MDT_7_7 1
    RHS MDT_8_7 1
    RHS MDT_9_7 1
    RHS MDT_10_7 1
    RHS MDT_11_7 1
    RHS DEM_8 1405.8191
    RHS RES_8 1546.401
    RHS MDT_0_8 1
    RHS MDT_1_8 1
    RHS MDT_2_8 1
    RHS MDT_3_8 1
    RHS MDT_4_8 1
    RHS MDT_5_8 1
    RHS MDT_6_8 1
    RHS MDT_7_8 1
    RHS MDT_8_8 1
    RHS MDT_9_8 1
    RHS MDT_10_8 1
    RHS MDT_11_8 1
    RHS DEM_9 1544.5171
    RHS RES_9 1698.9688
    RHS MDT_0_9 1
    RHS MDT_1_9 1
    RHS MDT_2_9 1
    RHS MDT_3_9 1
    RHS MDT_4_9 1
    RHS MDT_5_9 1
    RHS MDT_6_9 1
    RHS MDT_7_9 1
    RHS MDT_8_9 1
    RHS MDT_9_9 1
    RHS MDT_10_9 1
    RHS MDT_11_9 1
    RHS DEM_10 1637.1607
    RHS RES_10 1800.8768
    RHS MDT_0_10 1
    RHS MDT_1_10 1
    RHS MDT_2_10 1
    RHS MDT_3_10 1
    RHS MDT_4_10 1
    RHS MDT_5_10 1
    RHS MDT_6_10 1
    RHS MDT_7_10 1
    RHS MDT_8_10 1
    RHS MDT_9_10 1
    RHS MDT_10_10 1
    RHS MDT_11_10 1
    RHS DEM_11 1626.2843
    RHS RES_11 1788.9128
    RHS MDT_0_11 1
    RHS MDT_1_11 1
    RHS MDT_2_11 1
    RHS MDT_3_11 1
    RHS MDT_4_11 1
    RHS MDT_5_11 1
    RHS MDT_6_11 1
    RHS MDT_7_11 1
    RHS MDT_8_11 1
    RHS MDT_9_11 1
    RHS MDT_10_11 1
    RHS MDT_11_11 1
    RHS DEM_12 1753.7313
    RHS RES_12 1929.1044
    RHS MDT_0_12 1
    RHS MDT_1_12 1
    RHS MDT_2_12 1
    RHS MDT_3_12 1
    RHS MDT_4_12 1
    RHS MDT_5_12 1
    RHS MDT_6_12 1
    RHS MDT_7_12 1
    RHS MDT_8_12 1
    RHS MDT_9_12 1
    RHS MDT_10_12 1
    RHS MDT_11_12 1
    RHS DEM_13 1761.8759
    RHS RES_13 1938.0635
    RHS MDT_0_13 1
    RHS MDT_1_13 1
    RHS MDT_2_13 1
    RHS MDT_3_13 1
    RHS MDT_4_13 1
    RHS MDT_5_13 1
    RHS MDT_6_13 1
    RHS MDT_7_13 1
    RHS MDT_8_13 1
    RHS MDT_9_13 1
    RHS MDT_10_13 1
    RHS MDT_11_13 1
    RHS DEM_14 1592.2003
    RHS RES_14 1751.4204
    RHS MDT_0_14 1
    RHS MDT_1_14 1
    RHS MDT_2_14 1
    RHS MDT_3_14 1
    RHS MDT_4_14 1
    RHS MDT_5_14 1
    RHS MDT_6_14 1
    RHS MDT_7_14 1
    RHS MDT_8_14 1
    RHS MDT_9_14 1
    RHS MDT_10_14 1
    RHS MDT_11_14 1
    RHS DEM_15 1580.1376
    RHS RES_15 1738.1514
    RHS MDT_0_15 1
    RHS MDT_1_15 1
    RHS MDT_2_15 1
    RHS MDT_3_15 1
    RHS MDT_4_15 1
    RHS MDT_5_15 1
    RHS MDT_6_15 1
    RHS MDT_7_15 1
    RHS MDT_8_15 1
    RHS MDT_9_15 1
    RHS MDT_10_15 1
    RHS MDT_11_15 1
    RHS DEM_16 1280.303
    RHS RES_16 1408.3333
    RHS MDT_0_16 1
    RHS MDT_1_16 1
    RHS MDT_2_16 1
    RHS MDT_3_16 1
    RHS MDT_4_16 1
    RHS MDT_5_16 1
    RHS MDT_6_16 1
    RHS MDT_7_16 1
    RHS MDT_8_16 1
    RHS MDT_9_16 1
    RHS MDT_10_16 1
    RHS MDT_11_16 1
    RHS DEM_17 1390.6785
    RHS RES_17 1529.7464
    RHS MDT_0_17 1
    RHS MDT_1_17 1
    RHS MDT_2_17 1
    RHS MDT_3_17 1
    RHS MDT_4_17 1
    RHS MDT_5_17 1
    RHS MDT_6_17 1
    RHS MDT_7_17 1
    RHS MDT_8_17 1
    RHS MDT_9_17 1
    RHS MDT_10_17 1
    RHS MDT_11_17 1
    RHS DEM_18 1144.2544
    RHS RES_18 1258.6799
    RHS MDT_0_18 1
    RHS MDT_1_18 1
    RHS MDT_2_18 1
    RHS MDT_3_18 1
    RHS MDT_4_18 1
    RHS MDT_5_18 1
    RHS MDT_6_18 1
    RHS MDT_7_18 1
    RHS MDT_8_18 1
    RHS MDT_9_18 1
    RHS MDT_10_18 1
    RHS MDT_11_18 1
    RHS DEM_19 1157.8013
    RHS RES_19 1273.5815
    RHS MDT_0_19 1
    RHS MDT_1_19 1
    RHS MDT_2_19 1
    RHS MDT_3_19 1
    RHS MDT_4_19 1
    RHS MDT_5_19 1
    RHS MDT_6_19 1
    RHS MDT_7_19 1
    RHS MDT_8_19 1
    RHS MDT_9_19 1
    RHS MDT_10_19 1
    RHS MDT_11_19 1
    RHS DEM_20 1105.6431
    RHS RES_20 1216.2074
    RHS MDT_0_20 1
    RHS MDT_1_20 1
    RHS MDT_2_20 1
    RHS MDT_3_20 1
    RHS MDT_4_20 1
    RHS MDT_5_20 1
    RHS MDT_6_20 1
    RHS MDT_7_20 1
    RHS MDT_8_20 1
    RHS MDT_9_20 1
    RHS MDT_10_20 1
    RHS MDT_11_20 1
    RHS DEM_21 1128.5484
    RHS RES_21 1241.4032
    RHS MDT_0_21 1
    RHS MDT_1_21 1
    RHS MDT_2_21 1
    RHS MDT_3_21 1
    RHS MDT_4_21 1
    RHS MDT_5_21 1
    RHS MDT_6_21 1
    RHS MDT_7_21 1
    RHS MDT_8_21 1
    RHS MDT_9_21 1
    RHS MDT_10_21 1
    RHS MDT_11_21 1
    RHS DEM_22 937.68166
    RHS RES_22 1031.4498
    RHS MDT_0_22 1
    RHS MDT_1_22 1
    RHS MDT_2_22 1
    RHS MDT_3_22 1
    RHS MDT_4_22 1
    RHS MDT_5_22 1
    RHS MDT_6_22 1
    RHS MDT_7_22 1
    RHS MDT_8_22 1
    RHS MDT_9_22 1
    RHS MDT_10_22 1
    RHS MDT_11_22 1
    RHS DEM_23 960.92372
    RHS RES_23 1057.0161
    RHS MDT_0_23 1
    RHS MDT_1_23 1
    RHS MDT_2_23 1
    RHS MDT_3_23 1
    RHS MDT_4_23 1
    RHS MDT_5_23 1
    RHS MDT_6_23 1
    RHS MDT_7_23 1
    RHS MDT_8_23 1
    RHS MDT_9_23 1
    RHS MDT_10_23 1
    RHS MDT_11_23 1
BOUNDS
 UP BND U_0_0 1
 UP BND V_0_0 1
 UP BND W_0_0 1
 UP BND P_0_0 400
 UP BND U_1_0 1
 UP BND V_1_0 1
 UP BND W_1_0 1
 UP BND P_1_0 200
 UP BND U_2_0 1
 UP BND V_2_0 1
 UP BND W_2_0 1
 UP BND P_2_0 150
 UP BND U_3_0 1
 UP BND V_3_0 1
 UP BND W_3_0 1
 UP BND P_3_0 200
 UP BND U_4_0 1
 UP BND V_4_0 1
 UP BND W_4_0 1
 UP BND P_4_0 300
 UP BND U_5_0 1
 UP BND V_5_0 1
 UP BND W_5_0 1
 UP BND P_5_0 400
 UP BND U_6_0 1
 UP BND V_6_0 1
 UP BND W_6_0 1
 UP BND P_6_0 150
 UP BND U_7_0 1
 UP BND V_7_0 1
 UP BND W_7_0 1
 UP BND P_7_0 200
 UP BND U_8_0 1
 UP BND V_8_0 1
 UP BND W_8_0 1
 UP BND P_8_0 150
 UP BND U_9_0 1
 UP BND V_9_0 1
 UP BND W_9_0 1
 UP BND P_9_0 80
 UP BND U_10_0 1
 UP BND V_10_0 1
 UP BND W_10_0 1
 UP BND P_10_0 80
 UP BND U_11_0 1
 UP BND V_11_0 1
 UP BND W_11_0 1
 UP BND P_11_0 80
 UP BND SHED_0 932.05236
 UP BND U_0_1 1
 UP BND V_0_1 1
 UP BND W_0_1 1
 UP BND P_0_1 400
 UP BND U_1_1 1
 UP BND V_1_1 1
 UP BND W_1_1 1
 UP BND P_1_1 200
 UP BND U_2_1 1
 UP BND V_2_1 1
 UP BND W_2_1 1
 UP BND P_2_1 150
 UP BND U_3_1 1
 UP BND V_3_1 1
 UP BND W_3_1 1
 UP BND P_3_1 200
 UP BND U_4_1 1
 UP BND V_4_1 1
 UP BND W_4_1 1
 UP BND P_4_1 300
 UP BND U_5_1 1
 UP BND V_5_1 1
 UP BND W_5_1 1
 UP BND P_5_1 400
 UP BND U_6_1 1
 UP BND V_6_1 1
 UP BND W_6_1 1
 UP BND P_6_1 150
 UP BND U_7_1 1
 UP BND V_7_1 1
 UP BND W_7_1 1
 UP BND P_7_1 200
 UP BND U_8_1 1
 UP BND V_8_1 1
 UP BND W_8_1 1
 UP BND P_8_1 150
 UP BND U_9_1 1
 UP BND V_9_1 1
 UP BND W_9_1 1
 UP BND P_9_1 80
 UP BND U_10_1 1
 UP BND V_10_1 1
 UP BND W_10_1 1
 UP BND P_10_1 80
 UP BND U_11_1 1
 UP BND V_11_1 1
 UP BND W_11_1 1
 UP BND P_11_1 80
 UP BND SHED_1 910.44112
 UP BND U_0_2 1
 UP BND V_0_2 1
 UP BND W_0_2 1
 UP BND P_0_2 400
 UP BND U_1_2 1
 UP BND V_1_2 1
 UP BND W_1_2 1
 UP BND P_1_2 200
 UP BND U_2_2 1
 UP BND V_2_2 1
 UP BND W_2_2 1
 UP BND P_2_2 150
 UP BND U_3_2 1
 UP BND V_3_2 1
 UP BND W_3_2 1
 UP BND P_3_2 200
 UP BND U_4_2 1
 UP BND V_4_2 1
 UP BND W_4_2 1
 UP BND P_4_2 300
 UP BND U_5_2 1
 UP BND V_5_2 1
 UP BND W_5_2 1
 UP BND P_5_2 400
 UP BND U_6_2 1
 UP BND V_6_2 1
 UP BND W_6_2 1
 UP BND P_6_2 150
 UP BND U_7_2 1
 UP BND V_7_2 1
 UP BND W_7_2 1
 UP BND P_7_2 200
 UP BND U_8_2 1
 UP BND V_8_2 1
 UP BND W_8_2 1
 UP BND P_8_2 150
 UP BND U_9_2 1
 UP BND V_9_2 1
 UP BND W_9_2 1
 UP BND P_9_2 80
 UP BND U_10_2 1
 UP BND V_10_2 1
 UP BND W_10_2 1
 UP BND P_10_2 80
 UP BND U_11_2 1
 UP BND V_11_2 1
 UP BND W_11_2 1
 UP BND P_11_2 80
 UP BND SHED_2 919.21533
 UP BND U_0_3 1
 UP BND V_0_3 1
 UP BND W_0_3 1
 UP BND P_0_3 400
 UP BND U_1_3 1
 UP BND V_1_3 1
 UP BND W_1_3 1
 UP BND P_1_3 200
 UP BND U_2_3 1
 UP BND V_2_3 1
 UP BND W_2_3 1
 UP BND P_2_3 150
 UP BND U_3_3 1
 UP BND V_3_3 1
 UP BND W_3_3 1
 UP BND P_3_3 200
 UP BND U_4_3 1
 UP BND V_4_3 1
 UP BND W_4_3 1
 UP BND P_4_3 300
 UP BND U_5_3 1
 UP BND V_5_3 1
 UP BND W_5_3 1
 UP BND P_5_3 400
 UP BND U_6_3 1
 UP BND V_6_3 1
 UP BND W_6_3 1
 UP BND P_6_3 150
 UP BND U_7_3 1
 UP BND V_7_3 1
 UP BND W_7_3 1
 UP BND P_7_3 200
 UP BND U_8_3 1
 UP BND V_8_3 1
 UP BND W_8_3 1
 UP BND P_8_3 150
 UP BND U_9_3 1
 UP BND V_9_3 1
 UP BND W_9_3 1
 UP BND P_9_3 80
 UP BND U_10_3 1
 UP BND V_10_3 1
 UP BND W_10_3 1
 UP BND P_10_3 80
 UP BND U_11_3 1
 UP BND V_11_3 1
 UP BND W_11_3 1
 UP BND P_11_3 80
 UP BND SHED_3 914.64981
 UP BND U_0_4 1
 UP BND V_0_4 1
 UP BND W_0_4 1
 UP BND P_0_4 400
 UP BND U_1_4 1
 UP BND V_1_4 1
 UP BND W_1_4 1
 UP BND P_1_4 200
 UP BND U_2_4 1
 UP BND V_2_4 1
 UP BND W_2_4 1
 UP BND P_2_4 150
 UP BND U_3_4 1
 UP BND V_3_4 1
 UP BND W_3_4 1
 UP BND P_3_4 200
 UP BND U_4_4 1
 UP BND V_4_4 1
 UP BND W_4_4 1
 UP BND P_4_4 300
 UP BND U_5_4 1
 UP BND V_5_4 1
 UP BND W_5_4 1
 UP BND P_5_4 400
 UP BND U_6_4 1
 UP BND V_6_4 1
 UP BND W_6_4 1
 UP BND P_6_4 150
 UP BND U_7_4 1
 UP BND V_7_4 1
 UP BND W_7_4 1
 UP BND P_7_4 200
 UP BND U_8_4 1
 UP BND V_8_4 1
 UP BND W_8_4 1
 UP BND P_8_4 150
 UP BND U_9_4 1
 UP BND V_9_4 1
 UP BND W_9_4 1
 UP BND P_9_4 80
 UP BND U_10_4 1
 UP BND V_10_4 1
 UP BND W_10_4 1
 UP BND P_10_4 80
 UP BND U_11_4 1
 UP BND V_11_4 1
 UP BND W_11_4 1
 UP BND P_11_4 80
 UP BND SHED_4 912.10761
 UP BND U_0_5 1
 UP BND V_0_5 1
 UP BND W_0_5 1
 UP BND P_0_5 400
 UP BND U_1_5 1
 UP BND V_1_5 1
 UP BND W_1_5 1
 UP BND P_1_5 200
 UP BND U_2_5 1
 UP BND V_2_5 1
 UP BND W_2_5 1
 UP BND P_2_5 150
 UP BND U_3_5 1
 UP BND V_3_5 1
 UP BND W_3_5 1
 UP BND P_3_5 200
 UP BND U_4_5 1
 UP BND V_4_5 1
 UP BND W_4_5 1
 UP BND P_4_5 300
 UP BND U_5_5 1
 UP BND V_5_5 1
 UP BND W_5_5 1
 UP BND P_5_5 400
 UP BND U_6_5 1
 UP BND V_6_5 1
 UP BND W_6_5 1
 UP BND P_6_5 150
 UP BND U_7_5 1
 UP BND V_7_5 1
 UP BND W_7_5 1
 UP BND P_7_5 200
 UP BND U_8_5 1
 UP BND V_8_5 1
 UP BND W_8_5 1
 UP BND P_8_5 150
 UP BND U_9_5 1
 UP BND V_9_5 1
 UP BND W_9_5 1
 UP BND P_9_5 80
 UP BND U_10_5 1
 UP BND V_10_5 1
 UP BND W_10_5 1
 UP BND P_10_5 80
 UP BND U_11_5 1
 UP BND V_11_5 1
 UP BND W_11_5 1
 UP BND P_11_5 80
 UP BND SHED_5 996.02103
 UP BND U_0_6 1
 UP BND V_0_6 1
 UP BND W_0_6 1
 UP BND P_0_6 400
 UP BND U_1_6 1
 UP BND V_1_6 1
 UP BND W_1_6 1
 UP BND P_1_6 200
 UP BND U_2_6 1
 UP BND V_2_6 1
 UP BND W_2_6 1
 UP BND P_2_6 150
 UP BND U_3_6 1
 UP BND V_3_6 1
 UP BND W_3_6 1
 UP BND P_3_6 200
 UP BND U_4_6 1
 UP BND V_4_6 1
 UP BND W_4_6 1
 UP BND P_4_6 300
 UP BND U_5_6 1
 UP BND V_5_6 1
 UP BND W_5_6 1
 UP BND P_5_6 400
 UP BND U_6_6 1
 UP BND V_6_6 1
 UP BND W_6_6 1
 UP BND P_6_6 150
 UP BND U_7_6 1
 UP BND V_7_6 1
 UP BND W_7_6 1
 UP BND P_7_6 200
 UP BND U_8_6 1
 UP BND V_8_6 1
 UP BND W_8_6 1
 UP BND P_8_6 150
 UP BND U_9_6 1
 UP BND V_9_6 1
 UP BND W_9_6 1
 UP BND P_9_6 80
 UP BND U_10_6 1
 UP BND V_10_6 1
 UP BND W_10_6 1
 UP BND P_10_6 80
 UP BND U_11_6 1
 UP BND V_11_6 1
 UP BND W_11_6 1
 UP BND P_11_6 80
 UP BND SHED_6 943.8681
 UP BND U_0_7 1
 UP BND V_0_7 1
 UP BND W_0_7 1
 UP BND P_0_7 400
 UP BND U_1_7 1
 UP BND V_1_7 1
 UP BND W_1_7 1
 UP BND P_1_7 200
 UP BND U_2_7 1
 UP BND V_2_7 1
 UP BND W_2_7 1
 UP BND P_2_7 150
 UP BND U_3_7 1
 UP BND V_3_7 1
 UP BND W_3_7 1
 UP BND P_3_7 200
 UP BND U_4_7 1
 UP BND V_4_7 1
 UP BND W_4_7 1
 UP BND P_4_7 300
 UP BND U_5_7 1
 UP BND V_5_7 1
 UP BND W_5_7 1
 UP BND P_5_7 400
 UP BND U_6_7 1
 UP BND V_6_7 1
 UP BND W_6_7 1
 UP BND P_6_7 150
 UP BND U_7_7 1
 UP BND V_7_7 1
 UP BND W_7_7 1
 UP BND P_7_7 200
 UP BND U_8_7 1
 UP BND V_8_7 1
 UP BND W_8_7 1
 UP BND P_8_7 150
 UP BND U_9_7 1
 UP BND V_9_7 1
 UP BND W_9_7 1
 UP BND P_9_7 80
 UP BND U_10_7 1
 UP BND V_10_7 1
 UP BND W_10_7 1
 UP BND P_10_7 80
 UP BND U_11_7 1
 UP BND V_11_7 1
 UP BND W_11_7 1
 UP BND P_11_7 80
 UP BND SHED_7 1115.3246
 UP BND U_0_8 1
 UP BND V_0_8 1
 UP BND W_0_8 1
 UP BND P_0_8 400
 UP BND U_1_8 1
 UP BND V_1_8 1
 UP BND W_1_8 1
 UP BND P_1_8 200
 UP BND U_2_8 1
 UP BND V_2_8 1
 UP BND W_2_8 1
 UP BND P_2_8 150
 UP BND U_3_8 1
 UP BND V_3_8 1
 UP BND W_3_8 1
 UP BND P_3_8 200
 UP BND U_4_8 1
 UP BND V_4_8 1
 UP BND W_4_8 1
 UP BND P_4_8 300
 UP BND U_5_8 1
 UP BND V_5_8 1
 UP BND W_5_8 1
 UP BND P_5_8 400
 UP BND U_6_8 1
 UP BND V_6_8 1
 UP BND W_6_8 1
 UP BND P_6_8 150
 UP BND U_7_8 1
 UP BND V_7_8 1
 UP BND W_7_8 1
 UP BND P_7_8 200
 UP BND U_8_8 1
 UP BND V_8_8 1
 UP BND W_8_8 1
 UP BND P_8_8 150
 UP BND U_9_8 1
 UP BND V_9_8 1
 UP BND W_9_8 1
 UP BND P_9_8 80
 UP BND U_10_8 1
 UP BND V_10_8 1
 UP BND W_10_8 1
 UP BND P_10_8 80
 UP BND U_11_8 1
 UP BND V_11_8 1
 UP BND W_11_8 1
 UP BND P_11_8 80
 UP BND SHED_8 1405.8191
 UP BND U_0_9 1
 UP BND V_0_9 1
 UP BND W_0_9 1
 UP BND P_0_9 400
 UP BND U_1_9 1
 UP BND V_1_9 1
 UP BND W_1_9 1
 UP BND P_1_9 200
 UP BND U_2_9 1
 UP BND V_2_9 1
 UP BND W_2_9 1
 UP BND P_2_9 150
 UP BND U_3_9 1
 UP BND V_3_9 1
 UP BND W_3_9 1
 UP BND P_3_9 200
 UP BND U_4_9 1
 UP BND V_4_9 1
 UP BND W_4_9 1
 UP BND P_4_9 300
 UP BND U_5_9 1
 UP BND V_5_9 1
 UP BND W_5_9 1
 UP BND P_5_9 400
 UP BND U_6_9 1
 UP BND V_6_9 1
 UP BND W_6_9 1
 UP BND P_6_9 150
 UP BND U_7_9 1
 UP BND V_7_9 1
 UP BND W_7_9 1
 UP BND P_7_9 200
 UP BND U_8_9 1
 UP BND V_8_9 1
 UP BND W_8_9 1
 UP BND P_8_9 150
 UP BND U_9_9 1
 UP BND V_9_9 1
 UP BND W_9_9 1
 UP BND P_9_9 80
 UP BND U_10_9 1
 UP BND V_10_9 1
 UP BND W_10_9 1
 UP BND P_10_9 80
 UP BND U_11_9 1
 UP BND V_11_9 1
 UP BND W_11_9 1
 UP BND P_11_9 80
 UP BND SHED_9 1544.5171
 UP BND U_0_10 1
 UP BND V_0_10 1
 UP BND W_0_10 1
 UP BND P_0_10 400
 UP BND U_1_10 1
 UP BND V_1_10 1
 UP BND W_1_10 1
 UP BND P_1_10 200
 UP BND U_2_10 1
 UP BND V_2_10 1
 UP BND W_2_10 1
 UP BND P_2_10 150
 UP BND U_3_10 1
 UP BND V_3_10 1
 UP BND W_3_10 1
 UP BND P_3_10 200
 UP BND U_4_10 1
 UP BND V_4_10 1
 UP BND W_4_10 1
 UP BND P_4_10 300
 UP BND U_5_10 1
 UP BND V_5_10 1
 UP BND W_5_10 1
 UP BND P_5_10 400
 UP BND U_6_10 1
 UP BND V_6_10 1
 UP BND W_6_10 1
 UP BND P_6_10 150
 UP BND U_7_10 1
 UP BND V_7_10 1
 UP BND W_7_10 1
 UP BND P_7_10 200
 UP BND U_8_10 1
 UP BND V_8_10 1
 UP BND W_8_10 1
 UP BND P_8_10 150
 UP BND U_9_10 1
 UP BND V_9_10 1
 UP BND W_9_10 1
 UP BND P_9_10 80
 UP BND U_10_10 1
 UP BND V_10_10 1
 UP BND W_10_10 1
 UP BND P_10_10 80
 UP BND U_11_10 1
 UP BND V_11_10 1
 UP BND W_11_10 1
 UP BND P_11_10 80
 UP BND SHED_10 1637.1607
 UP BND U_0_11 1
 UP BND V_0_11 1
 UP BND W_0_11 1
 UP BND P_0_11 400
 UP BND U_1_11 1
 UP BND V_1_11 1
 UP BND W_1_11 1
 UP BND P_1_11 200
 UP BND U_2_11 1
 UP BND V_2_11 1
 UP BND W_2_11 1
 UP BND P_2_11 150
 UP BND U_3_11 1
 UP BND V_3_11 1
 UP BND W_3_11 1
 UP BND P_3_11 200
 UP BND U_4_11 1
 UP BND V_4_11 1
 UP BND W_4_11 1
 UP BND P_4_11 300
 UP BND U_5_11 1
 UP BND V_5_11 1
 UP BND W_5_11 1
 UP BND P_5_11 400
 UP BND U_6_11 1
 UP BND V_6_11 1
 UP BND W_6_11 1
 UP BND P_6_11 150
 UP BND U_7_11 1
 UP BND V_7_11 1
 UP BND W_7_11 1
 UP BND P_7_11 200
 UP BND U_8_11 1
 UP BND V_8_11 1
 UP BND W_8_11 1
 UP BND P_8_11 150
 UP BND U_9_11 1
 UP BND V_9_11 1
 UP BND W_9_11 1
 UP BND P_9_11 80
 UP BND U_10_11 1
 UP BND V_10_11 1
 UP BND W_10_11 1
 UP BND P_10_11 80
 UP BND U_11_11 1
 UP BND V_11_11 1
 UP BND W_11_11 1
 UP BND P_11_11 80
 UP BND SHED_11 1626.2843
 UP BND U_0_12 1
 UP BND V_0_12 1
 UP BND W_0_12 1
 UP BND P_0_12 400
 UP BND U_1_12 1
 UP BND V_1_12 1
 UP BND W_1_12 1
 UP BND P_1_12 200
 UP BND U_2_12 1
 UP BND V_2_12 1
 UP BND W_2_12 1
 UP BND P_2_12 150
 UP BND U_3_12 1
 UP BND V_3_12 1
 UP BND W_3_12 1
 UP BND P_3_12 200
 UP BND U_4_12 1
 UP BND V_4_12 1
 UP BND W_4_12 1
 UP BND P_4_12 300
 UP BND U_5_12 1
 UP BND V_5_12 1
 UP BND W_5_12 1
 UP BND P_5_12 400
 UP BND U_6_12 1
 UP BND V_6_12 1
 UP BND W_6_12 1
 UP BND P_6_12 150
 UP BND U_7_12 1
 UP BND V_7_12 1
 UP BND W_7_12 1
 UP BND P_7_12 200
 UP BND U_8_12 1
 UP BND V_8_12 1
 UP BND W_8_12 1
 UP BND P_8_12 150
 UP BND U_9_12 1
 UP BND V_9_12 1
 UP BND W_9_12 1
 UP BND P_9_12 80
 UP BND U_10_12 1
 UP BND V_10_12 1
 UP BND W_10_12 1
 UP BND P_10_12 80
 UP BND U_11_12 1
 UP BND V_11_12 1
 UP BND W_11_12 1
 UP BND P_11_12 80
 UP BND SHED_12 1753.7313
 UP BND U_0_13 1
 UP BND V_0_13 1
 UP BND W_0_13 1
 UP BND P_0_13 400
 UP BND U_1_13 1
 UP BND V_1_13 1
 UP BND W_1_13 1
 UP BND P_1_13 200
 UP BND U_2_13 1
 UP BND V_2_13 1
 UP BND W_2_13 1
 UP BND P_2_13 150
 UP BND U_3_13 1
 UP BND V_3_13 1
 UP BND W_3_13 1
 UP BND P_3_13 200
 UP BND U_4_13 1
 UP BND V_4_13 1
 UP BND W_4_13 1
 UP BND P_4_13 300
 UP BND U_5_13 1
 UP BND V_5_13 1
 UP BND W_5_13 1
 UP BND P_5_13 400
 UP BND U_6_13 1
 UP BND V_6_13 1
 UP BND W_6_13 1
 UP BND P_6_13 150
 UP BND U_7_13 1
 UP BND V_7_13 1
 UP BND W_7_13 1
 UP BND P_7_13 200
 UP BND U_8_13 1
 UP BND V_8_13 1
 UP BND W_8_13 1
 UP BND P_8_13 150
 UP BND U_9_13 1
 UP BND V_9_13 1
 UP BND W_9_13 1
 UP BND P_9_13 80
 UP BND U_10_13 1
 UP BND V_10_13 1
 UP BND W_10_13 1
 UP BND P_10_13 80
 UP BND U_11_13 1
 UP BND V_11_13 1
 UP BND W_11_13 1
 UP BND P_11_13 80
 UP BND SHED_13 1761.8759
 UP BND U_0_14 1
 UP BND V_0_14 1
 UP BND W_0_14 1
 UP BND P_0_14 400
 UP BND U_1_14 1
 UP BND V_1_14 1
 UP BND W_1_14 1
 UP BND P_1_14 200
 UP BND U_2_14 1
 UP BND V_2_14 1
 UP BND W_2_14 1
 UP BND P_2_14 150
 UP BND U_3_14 1
 UP BND V_3_14 1
 UP BND W_3_14 1
 UP BND P_3_14 200
 UP BND U_4_14 1
 UP BND V_4_14 1
 UP BND W_4_14 1
 UP BND P_4_14 300
 UP BND U_5_14 1
 UP BND V_5_14 1
 UP BND W_5_14 1
 UP BND P_5_14 400
 UP BND U_6_14 1
 UP BND V_6_14 1
 UP BND W_6_14 1
 UP BND P_6_14 150
 UP BND U_7_14 1
 UP BND V_7_14 1
 UP BND W_7_14 1
 UP BND P_7_14 200
 UP BND U_8_14 1
 UP BND V_8_14 1
 UP BND W_8_14 1
 UP BND P_8_14 150
 UP BND U_9_14 1
 UP BND V_9_14 1
 UP BND W_9_14 1
 UP BND P_9_14 80
 UP BND U_10_14 1
 UP BND V_10_14 1
 UP BND W_10_14 1
 UP BND P_10_14 80
 UP BND U_11_14 1
 UP BND V_11_14 1
 UP BND W_11_14 1
 UP BND P_11_14 80
 UP BND SHED_14 1592.2003
 UP BND U_0_15 1
 UP BND V_0_15 1
 UP BND W_0_15 1
 UP BND P_0_15 400
 UP BND U_1_15 1
 UP BND V_1_15 1
 UP BND W_1_15 1
 UP BND P_1_15 200
 UP BND U_2_15 1
 UP BND V_2_15 1
 UP BND W_2_15 1
 UP BND P_2_15 150
 UP BND U_3_15 1
 UP BND V_3_15 1
 UP BND W_3_15 1
 UP BND P_3_15 200
 UP BND U_4_15 1
 UP BND V_4_15 1
 UP BND W_4_15 1
 UP BND P_4_15 300
 UP BND U_5_15 1
 UP BND V_5_15 1
 UP BND W_5_15 1
 UP BND P_5_15 400
 UP BND U_6_15 1
 UP BND V_6_15 1
 UP BND W_6_15 1
 UP BND P_6_15 150
 UP BND U_7_15 1
 UP BND V_7_15 1
 UP BND W_7_15 1
 UP BND P_7_15 200
 UP BND U_8_15 1
 UP BND V_8_15 1
 UP BND W_8_15 1
 UP BND P_8_15 150
 UP BND U_9_15 1
 UP BND V_9_15 1
 UP BND W_9_15 1
 UP BND P_9_15 80
 UP BND U_10_15 1
 UP BND V_10_15 1
 UP BND W_10_15 1
 UP BND P_10_15 80
 UP BND U_11_15 1
 UP BND V_11_15 1
 UP BND W_11_15 1
 UP BND P_11_15 80
 UP BND SHED_15 1580.1376
 UP BND U_0_16 1
 UP BND V_0_16 1
 UP BND W_0_16 1
 UP BND P_0_16 400
 UP BND U_1_16 1
 UP BND V_1_16 1
 UP BND W_1_16 1
 UP BND P_1_16 200
 UP BND U_2_16 1
 UP BND V_2_16 1
 UP BND W_2_16 1
 UP BND P_2_16 150
 UP BND U_3_16 1
 UP BND V_3_16 1
 UP BND W_3_16 1
 UP BND P_3_16 200
 UP BND U_4_16 1
 UP BND V_4_16 1
 UP BND W_4_16 1
 UP BND P_4_16 300
 UP BND U_5_16 1
 UP BND V_5_16 1
 UP BND W_5_16 1
 UP BND P_5_16 400
 UP BND U_6_16 1
 UP BND V_6_16 1
 UP BND W_6_16 1
 UP BND P_6_16 150
 UP BND U_7_16 1
 UP BND V_7_16 1
 UP BND W_7_16 1
 UP BND P_7_16 200
 UP BND U_8_16 1
 UP BND V_8_16 1
 UP BND W_8_16 1
 UP BND P_8_16 150
 UP BND U_9_16 1
 UP BND V_9_16 1
 UP BND W_9_16 1
 UP BND P_9_16 80
 UP BND U_10_16 1
 UP BND V_10_16 1
 UP BND W_10_16 1
 UP BND P_10_16 80
 UP BND U_11_16 1
 UP BND V_11_16 1
 UP BND W_11_16 1
 UP BND P_11_16 80
 UP BND SHED_16 1280.303
 UP BND U_0_17 1
 UP BND V_0_17 1
 UP BND W_0_17 1
 UP BND P_0_17 400
 UP BND U_1_17 1
 UP BND V_1_17 1
 UP BND W_1_17 1
 UP BND P_1_17 200
 UP BND U_2_17 1
 UP BND V_2_17 1
 UP BND W_2_17 1
 UP BND P_2_17 150
 UP BND U_3_17 1
 UP BND V_3_17 1
 UP BND W_3_17 1
 UP BND P_3_17 200
 UP BND U_4_17 1
 UP BND V_4_17 1
 UP BND W_4_17 1
 UP BND P_4_17 300
 UP BND U_5_17 1
 UP BND V_5_17 1
 UP BND W_5_17 1
 UP BND P_5_17 400
 UP BND U_6_17 1
 UP BND V_6_17 1
 UP BND W_6_17 1
 UP BND P_6_17 150
 UP BND U_7_17 1
 UP BND V_7_17 1
 UP BND W_7_17 1
 UP BND P_7_17 200
 UP BND U_8_17 1
 UP BND V_8_17 1
 UP BND W_8_17 1
 UP BND P_8_17 150
 UP BND U_9_17 1
 UP BND V_9_17 1
 UP BND W_9_17 1
 UP BND P_9_17 80
 UP BND U_10_17 1
 UP BND V_10_17 1
 UP BND W_10_17 1
 UP BND P_10_17 80
 UP BND U_11_17 1
 UP BND V_11_17 1
 UP BND W_11_17 1
 UP BND P_11_17 80
 UP BND SHED_17 1390.6785
 UP BND U_0_18 1
 UP BND V_0_18 1
 UP BND W_0_18 1
 UP BND P_0_18 400
 UP BND U_1_18 1
 UP BND V_1_18 1
 UP BND W_1_18 1
 UP BND P_1_18 200
 UP BND U_2_18 1
 UP BND V_2_18 1
 UP BND W_2_18 1
 UP BND P_2_18 150
 UP BND U_3_18 1
 UP BND V_3_18 1
 UP BND W_3_18 1
 UP BND P_3_18 200
 UP BND U_4_18 1
 UP BND V_4_18 1
 UP BND W_4_18 1
 UP BND P_4_18 300
 UP BND U_5_18 1
 UP BND V_5_18 1
 UP BND W_5_18 1
 UP BND P_5_18 400
 UP BND U_6_18 1
 UP BND V_6_18 1
 UP BND W_6_18 1
 UP BND P_6_18 150
 UP BND U_7_18 1
 UP BND V_7_18 1
 UP BND W_7_18 1
 UP BND P_7_18 200
 UP BND U_8_18 1
 UP BND V_8_18 1
 UP BND W_8_18 1
 UP BND P_8_18 150
 UP BND U_9_18 1
 UP BND V_9_18 1
 UP BND W_9_18 1
 UP BND P_9_18 80
 UP BND U_10_18 1
 UP BND V_10_18 1
 UP BND W_10_18 1
 UP BND P_10_18 80
 UP BND U_11_18 1
 UP BND V_11_18 1
 UP BND W_11_18 1
 UP BND P_11_18 80
 UP BND SHED_18 1144.2544
 UP BND U_0_19 1
 UP BND V_0_19 1
 UP BND W_0_19 1
 UP BND P_0_19 400
 UP BND U_1_19 1
 UP BND V_1_19 1
 UP BND W_1_19 1
 UP BND P_1_19 200
 UP BND U_2_19 1
 UP BND V_2_19 1
 UP BND W_2_19 1
 UP BND P_2_19 150
 UP BND U_3_19 1
 UP BND V_3_19 1
 UP BND W_3_19 1
 UP BND P_3_19 200
 UP BND U_4_19 1
 UP BND V_4_19 1
 UP BND W_4_19 1
 UP BND P_4_19 300
 UP BND U_5_19 1
 UP BND V_5_19 1
 UP BND W_5_19 1
 UP BND P_5_19 400
 UP BND U_6_19 1
 UP BND V_6_19 1
 UP BND W_6_19 1
 UP BND P_6_19 150
 UP BND U_7_19 1
 UP BND V_7_19 1
 UP BND W_7_19 1
 UP BND P_7_19 200
 UP BND U_8_19 1
 UP BND V_8_19 1
 UP BND W_8_19 1
 UP BND P_8_19 150
 UP BND U_9_19 1
 UP BND V_9_19 1
 UP BND W_9_19 1
 UP BND P_9_19 80
 UP BND U_10_19 1
 UP BND V_10_19 1
 UP BND W_10_19 1
 UP BND P_10_19 80
 UP BND U_11_19 1
 UP BND V_11_19 1
 UP BND W_11_19 1
 UP BND P_11_19 80
 UP BND SHED_19 1157.8013
 UP BND U_0_20 1
 UP BND V_0_20 1
 UP BND W_0_20 1
 UP BND P_0_20 400
 UP BND U_1_20 1
 UP BND V_1_20 1
 UP BND W_1_20 1
 UP BND P_1_20 200
 UP BND U_2_20 1
 UP BND V_2_20 1
 UP BND W_2_20 1
 UP BND P_2_20 150
 UP BND U_3_20 1
 UP BND V_3_20 1
 UP BND W_3_20 1
 UP BND P_3_20 200
 UP BND U_4_20 1
 UP BND V_4_20 1
 UP BND W_4_20 1
 UP BND P_4_20 300
 UP BND U_5_20 1
 UP BND V_5_20 1
 UP BND W_5_20 1
 UP BND P_5_20 400
 UP BND U_6_20 1
 UP BND V_6_20 1
 UP BND W_6_20 1
 UP BND P_6_20 150
 UP BND U_7_20 1
 UP BND V_7_20 1
 UP BND W_7_20 1
 UP BND P_7_20 200
 UP BND U_8_20 1
 UP BND V_8_20 1
 UP BND W_8_20 1
 UP BND P_8_20 150
 UP BND U_9_20 1
 UP BND V_9_20 1
 UP BND W_9_20 1
 UP BND P_9_20 80
 UP BND U_10_20 1
 UP BND V_10_20 1
 UP BND W_10_20 1
 UP BND P_10_20 80
 UP BND U_11_20 1
 UP BND V_11_20 1
 UP BND W_11_20 1
 UP BND P_11_20 80
 UP BND SHED_20 1105.6431
 UP BND U_0_21 1
 UP BND V_0_21 1
 UP BND W_0_21 1
 UP BND P_0_21 400
 UP BND U_1_21 1
 UP BND V_1_21 1
 UP BND W_1_21 1
 UP BND P_1_21 200
 UP BND U_2_21 1
 UP BND V_2_21 1
 UP BND W_2_21 1
 UP BND P_2_21 150
 UP BND U_3_21 1
 UP BND V_3_21 1
 UP BND W_3_21 1
 UP BND P_3_21 200
 UP BND U_4_21 1
 UP BND V_4_21 1
 UP BND W_4_21 1
 UP BND P_4_21 300
 UP BND U_5_21 1
 UP BND V_5_21 1
 UP BND W_5_21 1
 UP BND P_5_21 400
 UP BND U_6_21 1
 UP BND V_6_21 1
 UP BND W_6_21 1
 UP BND P_6_21 150
 UP BND U_7_21 1
 UP BND V_7_21 1
 UP BND W_7_21 1
 UP BND P_7_21 200
 UP BND U_8_21 1
 UP BND V_8_21 1
 UP BND W_8_21 1
 UP BND P_8_21 150
 UP BND U_9_21 1
 UP BND V_9_21 1
 UP BND W_9_21 1
 UP BND P_9_21 80
 UP BND U_10_21 1
 UP BND V_10_21 1
 UP BND W_10_21 1
 UP BND P_10_21 80
 UP BND U_11_21 1
 UP BND V_11_21 1
 UP BND W_11_21 1
 UP BND P_11_21 80
 UP BND SHED_21 1128.5484
 UP BND U_0_22 1
 UP BND V_0_22 1
 UP BND W_0_22 1
 UP BND P_0_22 400
 UP BND U_1_22 1
 UP BND V_1_22 1
 UP BND W_1_22 1
 UP BND P_1_22 200
 UP BND U_2_22 1
 UP BND V_2_22 1
 UP BND W_2_22 1
 UP BND P_2_22 150
 UP BND U_3_22 1
 UP BND V_3_22 1
 UP BND W_3_22 1
 UP BND P_3_22 200
 UP BND U_4_22 1
 UP BND V_4_22 1
 UP BND W_4_22 1
 UP BND P_4_22 300
 UP BND U_5_22 1
 UP BND V_5_22 1
 UP BND W_5_22 1
 UP BND P_5_22 400
 UP BND U_6_22 1
 UP BND V_6_22 1
 UP BND W_6_22 1
 UP BND P_6_22 150
 UP BND U_7_22 1
 UP BND V_7_22 1
 UP BND W_7_22 1
 UP BND P_7_22 200
 UP BND U_8_22 1
 UP BND V_8_22 1
 UP BND W_8_22 1
 UP BND P_8_22 150
 UP BND U_9_22 1
 UP BND V_9_22 1
 UP BND W_9_22 1
 UP BND P_9_22 80
 UP BND U_10_22 1
 UP BND V_10_22 1
 UP BND W_10_22 1
 UP BND P_10_22 80
 UP BND U_11_22 1
 UP BND V_11_22 1
 UP BND W_11_22 1
 UP BND P_11_22 80
 UP BND SHED_22 937.68166
 UP BND U_0_23 1
 UP BND V_0_23 1
 UP BND W_0_23 1
 UP BND P_0_23 400
 UP BND U_1_23 1
 UP BND V_1_23 1
 UP BND W_1_23 1
 UP BND P_1_23 200
 UP BND U_2_23 1
 UP BND V_2_23 1
 UP BND W_2_23 1
 UP BND P_2_23 150
 UP BND U_3_23 1
 UP BND V_3_23 1
 UP BND W_3_23 1
 UP BND P_3_23 200
 UP BND U_4_23 1
 UP BND V_4_23 1
 UP BND W_4_23 1
 UP BND P_4_23 300
 UP BND U_5_23 1
 UP BND V_5_23 1
 UP BND W_5_23 1
 UP BND P_5_23 400
 UP BND U_6_23 1
 UP BND V_6_23 1
 UP BND W_6_23 1
 UP BND P_6_23 150
 UP BND U_7_23 1
 UP BND V_7_23 1
 UP BND W_7_23 1
 UP BND P_7_23 200
 UP BND U_8_23 1
 UP BND V_8_23 1
 UP BND W_8_23 1
 UP BND P_8_23 150
 UP BND U_9_23 1
 UP BND V_9_23 1
 UP BND W_9_23 1
 UP BND P_9_23 80
 UP BND U_10_23 1
 UP BND V_10_23 1
 UP BND W_10_23 1
 UP BND P_10_23 80
 UP BND U_11_23 1
 UP BND V_11_23 1
 UP BND W_11_23 1
 UP BND P_11_23 80
 UP BND SHED_23 960.92372
ENDATA
